SCEL4_1_2_2_0_0_0/1                     
   1.00000000000000     
     3.8511409038743456    0.0000000000000000    0.0000000000000000
     0.0000000000000000    7.7271933444805274    0.0000000000000000
     0.0000000000000000    0.0000000000000000    7.7271933444805274
   La   Mn   Ni   O 
     4     1     3    12
Direct
  0.0000000000000000  0.4961332557195703  0.0038667442804297
  0.0000000000000000  0.0038667442804297  0.4961332557195703
  0.0000000000000000  0.4961332557195703  0.4961332557195703
  0.0000000000000000  0.0038667442804297  0.0038667442804297
  0.5000000000000000  0.7500000000000000  0.7500000000000000
  0.5000000000000000  0.2500000000000000  0.2500000000000000
  0.5000000000000000  0.7500000000000000  0.2500000000000000
  0.5000000000000000  0.2500000000000000  0.7500000000000000
  0.5000000000000000  0.7500000000000000  0.5049736546691719
  0.5000000000000000  0.2500000000000000  0.4994760799968461
  0.5000000000000000  0.7500000000000000  0.9950263453308281
  0.5000000000000000  0.2500000000000000  0.0005239200031539
  0.5000000000000000  0.5049736546691719  0.7500000000000000
  0.5000000000000000  0.9950263453308281  0.7500000000000000
  0.5000000000000000  0.4994760799968461  0.2500000000000000
  0.5000000000000000  0.0005239200031539  0.2500000000000000
  0.0000000000000000  0.7500000000000000  0.7500000000000000
  0.0000000000000000  0.2500000000000000  0.7500000000000000
  0.0000000000000000  0.7500000000000000  0.2500000000000000
  0.0000000000000000  0.2500000000000000  0.2500000000000000
 
  0.00000000E+00  0.00000000E+00  0.00000000E+00
  0.00000000E+00  0.00000000E+00  0.00000000E+00
  0.00000000E+00  0.00000000E+00  0.00000000E+00
  0.00000000E+00  0.00000000E+00  0.00000000E+00
  0.00000000E+00  0.00000000E+00  0.00000000E+00
  0.00000000E+00  0.00000000E+00  0.00000000E+00
  0.00000000E+00  0.00000000E+00  0.00000000E+00
  0.00000000E+00  0.00000000E+00  0.00000000E+00
  0.00000000E+00  0.00000000E+00  0.00000000E+00
  0.00000000E+00  0.00000000E+00  0.00000000E+00
  0.00000000E+00  0.00000000E+00  0.00000000E+00
  0.00000000E+00  0.00000000E+00  0.00000000E+00
  0.00000000E+00  0.00000000E+00  0.00000000E+00
  0.00000000E+00  0.00000000E+00  0.00000000E+00
  0.00000000E+00  0.00000000E+00  0.00000000E+00
  0.00000000E+00  0.00000000E+00  0.00000000E+00
  0.00000000E+00  0.00000000E+00  0.00000000E+00
  0.00000000E+00  0.00000000E+00  0.00000000E+00
  0.00000000E+00  0.00000000E+00  0.00000000E+00
  0.00000000E+00  0.00000000E+00  0.00000000E+00
