SCEL6_1_2_3_0_0_0/1                     
   1.00000000000000     
     3.9174295785371318    0.0000000000000000    0.0000000000000000
     0.0000000000000000    7.8024766102982772    0.0000000000000000
     0.0000000000000000    0.0000000000000000   11.6598403679556561
   La   Mn   Ni   O 
     6     4     2    18
Direct
  0.0000000000000000  0.5000000000000000  0.3333332999999996
  0.0000000000000000  0.9915184689097885  0.6610050456114891
  0.0000000000000000  0.4915184689097885  0.0056616543885113
  0.0000000000000000  0.0000000000000000  0.3333332999999996
  0.0000000000000000  0.5084815310902044  0.6610050456114891
  0.0000000000000000  0.0084815310902115  0.0056616543885113
  0.5000000000000000  0.2500000000000000  0.5002173198044844
  0.5000000000000000  0.7500000000000000  0.8342519872032099
  0.5000000000000000  0.7500000000000000  0.1664493801955160
  0.5000000000000000  0.2500000000000000  0.8324146127967893
  0.5000000000000000  0.7500000000000000  0.4990806942804440
  0.5000000000000000  0.2500000000000000  0.1675860057195564
  0.5000000000000000  0.7500000000000000  0.6699733840054733
  0.5000000000000000  0.2500000000000000  0.3366814235199698
  0.5000000000000000  0.7500000000000000  0.0000544674245830
  0.5000000000000000  0.2500000000000000  0.6666122325754174
  0.5000000000000000  0.7500000000000000  0.3299851764800295
  0.5000000000000000  0.2500000000000000  0.9966933159945270
  0.5000000000000000  0.5000000000000000  0.8333332999999996
  0.5000000000000000  0.0062128255039156  0.5009849059293359
  0.5000000000000000  0.5062128255039156  0.1656817940706645
  0.5000000000000000  0.0000000000000000  0.8333332999999996
  0.5000000000000000  0.4937871744960844  0.5009849059293359
  0.5000000000000000  0.9937871744960844  0.1656817940706645
  0.0000000000000000  0.7500000000000000  0.8324389233297680
  0.0000000000000000  0.2500000000000000  0.5009261329353691
  0.0000000000000000  0.7500000000000000  0.1657405670646313
  0.0000000000000000  0.2500000000000000  0.8342276766702312
  0.0000000000000000  0.7500000000000000  0.5021173876033842
  0.0000000000000000  0.2500000000000000  0.1645493123966162
 
  0.00000000E+00  0.00000000E+00  0.00000000E+00
  0.00000000E+00  0.00000000E+00  0.00000000E+00
  0.00000000E+00  0.00000000E+00  0.00000000E+00
  0.00000000E+00  0.00000000E+00  0.00000000E+00
  0.00000000E+00  0.00000000E+00  0.00000000E+00
  0.00000000E+00  0.00000000E+00  0.00000000E+00
  0.00000000E+00  0.00000000E+00  0.00000000E+00
  0.00000000E+00  0.00000000E+00  0.00000000E+00
  0.00000000E+00  0.00000000E+00  0.00000000E+00
  0.00000000E+00  0.00000000E+00  0.00000000E+00
  0.00000000E+00  0.00000000E+00  0.00000000E+00
  0.00000000E+00  0.00000000E+00  0.00000000E+00
  0.00000000E+00  0.00000000E+00  0.00000000E+00
  0.00000000E+00  0.00000000E+00  0.00000000E+00
  0.00000000E+00  0.00000000E+00  0.00000000E+00
  0.00000000E+00  0.00000000E+00  0.00000000E+00
  0.00000000E+00  0.00000000E+00  0.00000000E+00
  0.00000000E+00  0.00000000E+00  0.00000000E+00
  0.00000000E+00  0.00000000E+00  0.00000000E+00
  0.00000000E+00  0.00000000E+00  0.00000000E+00
  0.00000000E+00  0.00000000E+00  0.00000000E+00
  0.00000000E+00  0.00000000E+00  0.00000000E+00
  0.00000000E+00  0.00000000E+00  0.00000000E+00
  0.00000000E+00  0.00000000E+00  0.00000000E+00
  0.00000000E+00  0.00000000E+00  0.00000000E+00
  0.00000000E+00  0.00000000E+00  0.00000000E+00
  0.00000000E+00  0.00000000E+00  0.00000000E+00
  0.00000000E+00  0.00000000E+00  0.00000000E+00
  0.00000000E+00  0.00000000E+00  0.00000000E+00
  0.00000000E+00  0.00000000E+00  0.00000000E+00
