SCEL6_6_1_1_0_5_3/1                     
   1.00000000000000     
     3.9019195970389395    0.0000000000000000   -3.9019195971022547
     0.0000000000316419    7.7821081543759592    0.0000000000316419
     3.9046266691584193   -3.8910540820783499    7.8065462564209591
   La   Mn   Ni   O 
     6     4     2    18
Direct
  0.6704707029941233  0.1815852569155467  0.3409413059882809
  0.3295292970058910  0.3406438509272647  0.6590586940117547
  0.0000000000000000  0.5000000000000000  0.0000000000000000
  0.6704707029941090  0.6593561490727353  0.3409413059882453
  0.3295292970058767  0.8184147430844533  0.6590586940117191
  0.0000000000000000  0.0000000000000000  0.0000000000000000
  0.8337219209950177  0.0837219209950106  0.6674439419900366
  0.4998754942048862  0.2498754942049075  0.9997509884098008
  0.1662780790049823  0.9162780790049823  0.3325560580099634
  0.5001245057951138  0.7501245057950925  0.0002490115901992
  0.8344403121369126  0.5844403121368984  0.6688807242738051
  0.1655596878630874  0.4155596878631016  0.3311192757261949
  0.6669358197846620  0.1685516516730559  0.8371032033460963
  0.0000000000000000  0.0000000000000000  0.5000000000000000
  0.3330641802153380  0.8314483483269441  0.1628967966539037
  0.6640060438072695  0.6683419845760952  0.8366838691521750
  0.0000000000000000  0.5000000000000000  0.5000000000000000
  0.3359939561927305  0.3316580154239048  0.1633161308478250
  0.5000000000000000  0.0000000000000000  0.0000000000000000
  0.8339460469454707  0.8399276286486952  0.6678921938909568
  0.1660539530545435  0.6720355347577538  0.3321078061090716
  0.5000000000000000  0.5000000000000000  0.0000000000000000
  0.8339460469454565  0.3279644652422462  0.6678921938909284
  0.1660539530545293  0.1600723713513048  0.3321078061090432
  0.1701674835614142  0.1685516516730559  0.8371032033460892
  0.5000000000000000  0.0000000000000000  0.5000000000000000
  0.8298325164385858  0.8314483483269441  0.1628967966539108
  0.1726779253448640  0.6683419845760881  0.8366838691521608
  0.5000000000000000  0.5000000000000000  0.5000000000000000
  0.8273220746551360  0.3316580154239119  0.1633161308478392
 
  0.00000000E+00  0.00000000E+00  0.00000000E+00
  0.00000000E+00  0.00000000E+00  0.00000000E+00
  0.00000000E+00  0.00000000E+00  0.00000000E+00
  0.00000000E+00  0.00000000E+00  0.00000000E+00
  0.00000000E+00  0.00000000E+00  0.00000000E+00
  0.00000000E+00  0.00000000E+00  0.00000000E+00
  0.00000000E+00  0.00000000E+00  0.00000000E+00
  0.00000000E+00  0.00000000E+00  0.00000000E+00
  0.00000000E+00  0.00000000E+00  0.00000000E+00
  0.00000000E+00  0.00000000E+00  0.00000000E+00
  0.00000000E+00  0.00000000E+00  0.00000000E+00
  0.00000000E+00  0.00000000E+00  0.00000000E+00
  0.00000000E+00  0.00000000E+00  0.00000000E+00
  0.00000000E+00  0.00000000E+00  0.00000000E+00
  0.00000000E+00  0.00000000E+00  0.00000000E+00
  0.00000000E+00  0.00000000E+00  0.00000000E+00
  0.00000000E+00  0.00000000E+00  0.00000000E+00
  0.00000000E+00  0.00000000E+00  0.00000000E+00
  0.00000000E+00  0.00000000E+00  0.00000000E+00
  0.00000000E+00  0.00000000E+00  0.00000000E+00
  0.00000000E+00  0.00000000E+00  0.00000000E+00
  0.00000000E+00  0.00000000E+00  0.00000000E+00
  0.00000000E+00  0.00000000E+00  0.00000000E+00
  0.00000000E+00  0.00000000E+00  0.00000000E+00
  0.00000000E+00  0.00000000E+00  0.00000000E+00
  0.00000000E+00  0.00000000E+00  0.00000000E+00
  0.00000000E+00  0.00000000E+00  0.00000000E+00
  0.00000000E+00  0.00000000E+00  0.00000000E+00
  0.00000000E+00  0.00000000E+00  0.00000000E+00
  0.00000000E+00  0.00000000E+00  0.00000000E+00
