SCEL6_6_1_1_0_5_3/1
1.0
3.94014471 0.00000000 -3.94014471
0.00000000 7.88028941 0.00000000
3.94014471 -3.94014471 7.88028941
   La   Mn   Ni   O
   6   4   2   18
Direct
0.66666670    0.16666670    0.33333330    La
0.33333330    0.33333330    0.66666670    La
0.00000000    0.50000000    0.00000000    La
0.66666670    0.66666670    0.33333330    La
0.33333330    0.83333330    0.66666670    La
0.00000000    0.00000000    0.00000000    La
0.83333330    1.08333330    0.66666670    Mn
0.50000000    1.25000000    1.00000000    Mn
0.16666670    0.91666670    0.33333330    Mn
0.50000000    0.75000000    1.00000000    Mn
0.83333330    0.58333330    0.66666670    Ni
0.16666670    0.41666670    0.33333330    Ni
0.66666670    1.16666670    0.83333330    O
1.00000000    1.00000000    0.50000000    O
0.33333330    0.83333330    0.16666670    O
0.66666670    0.66666670    0.83333330    O
1.00000000    0.50000000    0.50000000    O
0.33333330    0.33333330    0.16666670    O
0.50000000    1.00000000    1.00000000    O
0.83333330    0.83333330    0.66666670    O
0.16666670    0.66666670    0.33333330    O
0.50000000    0.50000000    1.00000000    O
0.83333330    0.33333330    0.66666670    O
0.16666670    0.16666670    0.33333330    O
0.16666670    1.16666670    0.83333330    O
0.50000000    1.00000000    0.50000000    O
-0.16666670    0.83333330    0.16666670    O
0.16666670    0.66666670    0.83333330    O
0.50000000    0.50000000    0.50000000    O
-0.16666670    0.33333330    0.16666670    O
