SCEL6_6_1_1_0_5_5/5                     
   1.00000000000000     
     3.8631455320898658    0.0000000000000000   -3.8631455320898658
    -3.8631455320898658    3.8631455320898658    0.0000000000000000
     7.7523581008482703    7.7523581008482703    7.7523581008482703
   La   Mn   Ni   O 
     6     2     4    18
Direct
  0.6666667000000004  0.3333332999999996  0.8424334700666378
  0.3333332999999996  0.6666667000000004  0.6791204443132770
  0.0000000000000000  0.0000000000000000  0.5000000000000000
  0.6666667000000004  0.3333332999999996  0.3208795556867230
  0.3333332999999996  0.6666667000000004  0.1575665299333622
  0.0000000000000000  0.0000000000000000  0.0000000000000000
  0.6666667000000004  0.3333332999999996  0.5839319620114907
  0.3333332999999996  0.6666667000000004  0.4160680379885093
  0.3333332999999996  0.6666667000000004  0.9164361821196749
  0.0000000000000000  0.0000000000000000  0.7496555962361171
  0.6666667000000004  0.3333332999999996  0.0835638178803251
  0.0000000000000000  0.0000000000000000  0.2503444037638829
  0.6615676703530511  0.8307837851765285  0.3372218519750305
  0.0000000000000000  0.5000000000000000  0.5000000000000000
  0.3384323296469489  0.1692162148234715  0.6627781480249695
  0.6638381606670904  0.8319190303335446  0.8326906669548890
  0.0000000000000000  0.5000000000000000  0.0000000000000000
  0.3361618393329096  0.1680809696664554  0.1673093330451110
  0.1692162148234715  0.3384323296469489  0.3372218519750305
  0.5000000000000000  0.0000000000000000  0.5000000000000000
  0.8307837851765285  0.6615676703530511  0.6627781480249695
  0.1680809696664554  0.3361618393329096  0.8326906669548890
  0.5000000000000000  0.0000000000000000  0.0000000000000000
  0.8319190303335446  0.6638381606670904  0.1673093330451110
  0.1692162148234715  0.8307837851765285  0.3372218519750305
  0.5000000000000000  0.5000000000000000  0.5000000000000000
  0.8307837851765285  0.1692162148234715  0.6627781480249695
  0.1680809696664554  0.8319190303335446  0.8326906669548890
  0.5000000000000000  0.5000000000000000  0.0000000000000000
  0.8319190303335446  0.1680809696664554  0.1673093330451110
 
  0.00000000E+00  0.00000000E+00  0.00000000E+00
  0.00000000E+00  0.00000000E+00  0.00000000E+00
  0.00000000E+00  0.00000000E+00  0.00000000E+00
  0.00000000E+00  0.00000000E+00  0.00000000E+00
  0.00000000E+00  0.00000000E+00  0.00000000E+00
  0.00000000E+00  0.00000000E+00  0.00000000E+00
  0.00000000E+00  0.00000000E+00  0.00000000E+00
  0.00000000E+00  0.00000000E+00  0.00000000E+00
  0.00000000E+00  0.00000000E+00  0.00000000E+00
  0.00000000E+00  0.00000000E+00  0.00000000E+00
  0.00000000E+00  0.00000000E+00  0.00000000E+00
  0.00000000E+00  0.00000000E+00  0.00000000E+00
  0.00000000E+00  0.00000000E+00  0.00000000E+00
  0.00000000E+00  0.00000000E+00  0.00000000E+00
  0.00000000E+00  0.00000000E+00  0.00000000E+00
  0.00000000E+00  0.00000000E+00  0.00000000E+00
  0.00000000E+00  0.00000000E+00  0.00000000E+00
  0.00000000E+00  0.00000000E+00  0.00000000E+00
  0.00000000E+00  0.00000000E+00  0.00000000E+00
  0.00000000E+00  0.00000000E+00  0.00000000E+00
  0.00000000E+00  0.00000000E+00  0.00000000E+00
  0.00000000E+00  0.00000000E+00  0.00000000E+00
  0.00000000E+00  0.00000000E+00  0.00000000E+00
  0.00000000E+00  0.00000000E+00  0.00000000E+00
  0.00000000E+00  0.00000000E+00  0.00000000E+00
  0.00000000E+00  0.00000000E+00  0.00000000E+00
  0.00000000E+00  0.00000000E+00  0.00000000E+00
  0.00000000E+00  0.00000000E+00  0.00000000E+00
  0.00000000E+00  0.00000000E+00  0.00000000E+00
  0.00000000E+00  0.00000000E+00  0.00000000E+00
