SCEL5_1_5_1_2_0_0/2
1.0
-3.94014471 0.00000000 0.00000000
0.00000000 7.88028941 3.94014471
0.00000000 3.94014471 -7.88028941
   La   Mn   Ni   O
   5   2   3   15
Direct
0.00000000    0.40000000    0.20000000    La
0.00000000    0.80000000    0.40000000    La
0.00000000    0.20000000    0.60000000    La
0.00000000    0.60000000    0.80000000    La
0.00000000    0.00000000    0.00000000    La
-0.50000000    0.50000000    0.50000000    Mn
-0.50000000    0.90000000    0.70000000    Mn
-0.50000000    1.10000000    0.30000000    Ni
-0.50000000    0.70000000    0.10000000    Ni
-0.50000000    0.30000000    -0.10000000    Ni
-0.50000000    0.80000000    0.90000000    O
-0.50000000    0.40000000    0.70000000    O
-0.50000000    1.00000000    0.50000000    O
-0.50000000    0.60000000    0.30000000    O
-0.50000000    0.20000000    0.10000000    O
-0.50000000    0.70000000    0.60000000    O
-0.50000000    0.30000000    0.40000000    O
-0.50000000    0.90000000    0.20000000    O
-0.50000000    0.50000000    0.00000000    O
-0.50000000    0.10000000    -0.20000000    O
0.00000000    0.90000000    0.70000000    O
0.00000000    0.50000000    0.50000000    O
0.00000000    1.10000000    0.30000000    O
0.00000000    0.70000000    0.10000000    O
0.00000000    0.30000000    -0.10000000    O
