SCEL6_1_6_1_1_0_0/1                     
   1.00000000000000     
     3.8947955663129119    0.0000000000000000    0.0000000000000000
     0.0000000000000000    3.9108864847333655    3.9108864847333655
     0.0000000000000000  -11.7609613883842883   11.7609613883842883
   La   Mn   Ni   O 
     6     4     2    18
Direct
  0.0000000000000000  0.5000000000000000  0.1548420131065100
  0.0000000000000000  0.0000000000000000  0.3207450389736621
  0.0000000000000000  0.5000000000000000  0.4971692824248066
  0.0000000000000000  0.0000000000000000  0.6694974175751938
  0.0000000000000000  0.5000000000000000  0.8459215610263371
  0.0000000000000000  0.0000000000000000  0.0118246868934904
  0.5000000000000000  0.5000000000000000  0.6672646687817974
  0.5000000000000000  0.0000000000000000  0.8340241878500052
  0.5000000000000000  0.0000000000000000  0.4994020312182030
  0.5000000000000000  0.5000000000000000  0.3326424121499940
  0.5000000000000000  0.0000000000000000  0.1676101312488711
  0.5000000000000000  0.5000000000000000  0.9990565687511292
  0.5000000000000000  0.7568956002678817  0.7492742195635671
  0.5000000000000000  0.2500000000000000  0.5833332999999996
  0.5000000000000000  0.7431043997321183  0.4173924804364333
  0.5000000000000000  0.2507657210869212  0.2538234919392792
  0.5000000000000000  0.7500000000000000  0.0833332999999996
  0.5000000000000000  0.2492342789130788  0.9128432080607212
  0.5000000000000000  0.7507657210869212  0.9128432080607212
  0.5000000000000000  0.2431043997321183  0.7492742195635671
  0.5000000000000000  0.7500000000000000  0.5833332999999996
  0.5000000000000000  0.2568956002678817  0.4173924804364333
  0.5000000000000000  0.7492342789130788  0.2538234919392792
  0.5000000000000000  0.2500000000000000  0.0833332999999996
  0.0000000000000000  0.0000000000000000  0.8302423454647112
  0.0000000000000000  0.5000000000000000  0.6652672255164305
  0.0000000000000000  0.0000000000000000  0.5013994744835770
  0.0000000000000000  0.5000000000000000  0.3364242545352809
  0.0000000000000000  0.0000000000000000  0.1687308965827157
  0.0000000000000000  0.5000000000000000  0.9979358034172847
 
  0.00000000E+00  0.00000000E+00  0.00000000E+00
  0.00000000E+00  0.00000000E+00  0.00000000E+00
  0.00000000E+00  0.00000000E+00  0.00000000E+00
  0.00000000E+00  0.00000000E+00  0.00000000E+00
  0.00000000E+00  0.00000000E+00  0.00000000E+00
  0.00000000E+00  0.00000000E+00  0.00000000E+00
  0.00000000E+00  0.00000000E+00  0.00000000E+00
  0.00000000E+00  0.00000000E+00  0.00000000E+00
  0.00000000E+00  0.00000000E+00  0.00000000E+00
  0.00000000E+00  0.00000000E+00  0.00000000E+00
  0.00000000E+00  0.00000000E+00  0.00000000E+00
  0.00000000E+00  0.00000000E+00  0.00000000E+00
  0.00000000E+00  0.00000000E+00  0.00000000E+00
  0.00000000E+00  0.00000000E+00  0.00000000E+00
  0.00000000E+00  0.00000000E+00  0.00000000E+00
  0.00000000E+00  0.00000000E+00  0.00000000E+00
  0.00000000E+00  0.00000000E+00  0.00000000E+00
  0.00000000E+00  0.00000000E+00  0.00000000E+00
  0.00000000E+00  0.00000000E+00  0.00000000E+00
  0.00000000E+00  0.00000000E+00  0.00000000E+00
  0.00000000E+00  0.00000000E+00  0.00000000E+00
  0.00000000E+00  0.00000000E+00  0.00000000E+00
  0.00000000E+00  0.00000000E+00  0.00000000E+00
  0.00000000E+00  0.00000000E+00  0.00000000E+00
  0.00000000E+00  0.00000000E+00  0.00000000E+00
  0.00000000E+00  0.00000000E+00  0.00000000E+00
  0.00000000E+00  0.00000000E+00  0.00000000E+00
  0.00000000E+00  0.00000000E+00  0.00000000E+00
  0.00000000E+00  0.00000000E+00  0.00000000E+00
  0.00000000E+00  0.00000000E+00  0.00000000E+00
