ALGO = Fast
EDIFF = 0.001
ENCUT = 520
IBRION = 2
ICHARG = 1
ISIF = 3
ISMEAR = 0
ISPIN = 2
LDAU = .true.
LDAUPRINT = 1
LDAUTYPE = 2
LMAXMIX = 6
LORBIT = 11
LREAL = Auto
LWAVE = .false.
NELM = 100
NSW = 99
PREC = Accurate
SIGMA = 0.05
