La1 Mn1 O3
   1.00000000000000
     3.9401447063983781    0.0000000000000000    0.0000000000000000
     0.0000000000000000    3.9401447063983781    0.0000000000000000
     0.0000000000000000    0.0000000000000000    3.9401447063983781
   La   Mn   O
     1     1     3
Direct
  0.0000000000000000  0.0000000000000000  0.0000000000000000
  0.5000000000000000  0.5000000000000000  0.5000000000000000
  0.0000000000000000  0.5000000000000000  0.5000000000000000
  0.5000000000000000  0.0000000000000000  0.5000000000000000
  0.5000000000000000  0.5000000000000000  0.0000000000000000