SCEL5_1_5_1_4_0_0/1                     
   1.00000000000000     
     3.8777148216814616    0.0000000000000000    0.0000000000000000
     0.0000000000000000    3.8990404681311488   -3.8990404681311488
     0.0000000000000000    7.8199916698987346   11.7190321380298830
   La   Mn   Ni   O 
     5     3     2    15
Direct
  0.0000000000000000  0.6065783615127458  0.2131567230254703
  0.0000000000000000  0.1934216384872585  0.3868432769745311
  0.0000000000000000  0.7935337158241680  0.5870674316483360
  0.0000000000000000  0.3999999999999986  0.7999999999999972
  0.0000000000000000  0.0064662841758292  0.0129325683516655
  0.5000000000000000  0.8999999999999986  0.7999999999999972
  0.5000000000000000  0.5000522531749141  0.0001045063498282
  0.5000000000000000  0.2999477468250831  0.5998954936501733
  0.5000000000000000  0.7005856996626321  0.4011713993252428
  0.5000000000000000  0.0994143003373722  0.1988286006747586
  0.5000000000000000  0.6955293143250643  0.8989596300460576
  0.5000000000000000  0.1044706856749400  0.7010403699539438
  0.5000000000000000  0.5015452786517542  0.5045224272392730
  0.5000000000000000  0.8999999999999986  0.2999999999999972
  0.5000000000000000  0.2984547213482429  0.0954775727607284
  0.5000000000000000  0.2034303157210076  0.8989596300460576
  0.5000000000000000  0.5965696842789967  0.7010403699539438
  0.5000000000000000  0.0029771485875187  0.5045224272392730
  0.5000000000000000  0.3999999999999986  0.2999999999999972
  0.5000000000000000  0.7970228514124784  0.0954775727607284
  0.0000000000000000  0.4985063844325808  0.9970127688651829
  0.0000000000000000  0.8999999999999986  0.7999999999999972
  0.0000000000000000  0.3014936155674164  0.6029872311348186
  0.0000000000000000  0.7008122517353357  0.4016245034706714
  0.0000000000000000  0.0991877482646686  0.1983754965293301
 
  0.00000000E+00  0.00000000E+00  0.00000000E+00
  0.00000000E+00  0.00000000E+00  0.00000000E+00
  0.00000000E+00  0.00000000E+00  0.00000000E+00
  0.00000000E+00  0.00000000E+00  0.00000000E+00
  0.00000000E+00  0.00000000E+00  0.00000000E+00
  0.00000000E+00  0.00000000E+00  0.00000000E+00
  0.00000000E+00  0.00000000E+00  0.00000000E+00
  0.00000000E+00  0.00000000E+00  0.00000000E+00
  0.00000000E+00  0.00000000E+00  0.00000000E+00
  0.00000000E+00  0.00000000E+00  0.00000000E+00
  0.00000000E+00  0.00000000E+00  0.00000000E+00
  0.00000000E+00  0.00000000E+00  0.00000000E+00
  0.00000000E+00  0.00000000E+00  0.00000000E+00
  0.00000000E+00  0.00000000E+00  0.00000000E+00
  0.00000000E+00  0.00000000E+00  0.00000000E+00
  0.00000000E+00  0.00000000E+00  0.00000000E+00
  0.00000000E+00  0.00000000E+00  0.00000000E+00
  0.00000000E+00  0.00000000E+00  0.00000000E+00
  0.00000000E+00  0.00000000E+00  0.00000000E+00
  0.00000000E+00  0.00000000E+00  0.00000000E+00
  0.00000000E+00  0.00000000E+00  0.00000000E+00
  0.00000000E+00  0.00000000E+00  0.00000000E+00
  0.00000000E+00  0.00000000E+00  0.00000000E+00
  0.00000000E+00  0.00000000E+00  0.00000000E+00
  0.00000000E+00  0.00000000E+00  0.00000000E+00
