SCEL6_3_2_1_0_1_0/3                     
   1.00000000000000     
     3.8754966744635335    0.0000000000000000    3.8754966745701833
     0.0000000000000000   -7.7661823957900493    0.0000000000000000
     3.8789458499616272    0.0000000000000000   -7.7544425148024194
   La   Mn   Ni   O 
     6     3     3    18
Direct
  0.3333332999999996  0.5010444743431748  0.6666667000000004
  0.6652175114924077  0.9915389378069506  0.3304349229847929
  0.0014491885075927  0.5084610621930494  0.0028983770152067
  0.3333332999999996  0.9989555256568252  0.6666667000000004
  0.6652175114924077  0.5084610621930494  0.3304349229847929
  0.0014491885075927  0.9915389378069506  0.0028983770152067
  0.8333332999999996  0.7500000000000000  0.6666667000000004
  0.1679402515802551  0.2500000000000000  0.3358804031606155
  0.4987264484197453  0.2500000000000000  0.9974528968393841
  0.1669169551941110  0.7500000000000000  0.3338338103881640
  0.8333332999999996  0.2500000000000000  0.6666667000000004
  0.4997497448058894  0.7500000000000000  0.9994994896118357
  0.0042596069070484  0.2500000000000000  0.4970484081365356
  0.6695245930540850  0.7500000000000000  0.8297926556217448
  0.3333332999999996  0.2500000000000000  0.1666667000000004
  0.9971421069459154  0.7500000000000000  0.5035406443782549
  0.6624070930929520  0.2500000000000000  0.8362848918634640
  0.3333332999999996  0.7500000000000000  0.1666667000000004
  0.1668819067694969  0.4933175137019461  0.3337637135389926
  0.8333332999999996  0.9956671536734305  0.6666667000000004
  0.4997847932305035  0.4933175137019461  0.9995695864610070
  0.1668819067694969  0.0066824862980539  0.3337637135389926
  0.8333332999999996  0.5043328463265695  0.6666667000000004
  0.4997847932305035  0.0066824862980539  0.9995695864610070
  0.8333332999999996  0.2500000000000000  0.1666667000000004
  0.5063985374322257  0.7500000000000000  0.5035406443781980
  0.1738778987704066  0.2500000000000000  0.8362848918634072
  0.8333332999999996  0.7500000000000000  0.1666667000000004
  0.4927888012295938  0.2500000000000000  0.4970484081365925
  0.1602681625677747  0.7500000000000000  0.8297926556218016
 
  0.00000000E+00  0.00000000E+00  0.00000000E+00
  0.00000000E+00  0.00000000E+00  0.00000000E+00
  0.00000000E+00  0.00000000E+00  0.00000000E+00
  0.00000000E+00  0.00000000E+00  0.00000000E+00
  0.00000000E+00  0.00000000E+00  0.00000000E+00
  0.00000000E+00  0.00000000E+00  0.00000000E+00
  0.00000000E+00  0.00000000E+00  0.00000000E+00
  0.00000000E+00  0.00000000E+00  0.00000000E+00
  0.00000000E+00  0.00000000E+00  0.00000000E+00
  0.00000000E+00  0.00000000E+00  0.00000000E+00
  0.00000000E+00  0.00000000E+00  0.00000000E+00
  0.00000000E+00  0.00000000E+00  0.00000000E+00
  0.00000000E+00  0.00000000E+00  0.00000000E+00
  0.00000000E+00  0.00000000E+00  0.00000000E+00
  0.00000000E+00  0.00000000E+00  0.00000000E+00
  0.00000000E+00  0.00000000E+00  0.00000000E+00
  0.00000000E+00  0.00000000E+00  0.00000000E+00
  0.00000000E+00  0.00000000E+00  0.00000000E+00
  0.00000000E+00  0.00000000E+00  0.00000000E+00
  0.00000000E+00  0.00000000E+00  0.00000000E+00
  0.00000000E+00  0.00000000E+00  0.00000000E+00
  0.00000000E+00  0.00000000E+00  0.00000000E+00
  0.00000000E+00  0.00000000E+00  0.00000000E+00
  0.00000000E+00  0.00000000E+00  0.00000000E+00
  0.00000000E+00  0.00000000E+00  0.00000000E+00
  0.00000000E+00  0.00000000E+00  0.00000000E+00
  0.00000000E+00  0.00000000E+00  0.00000000E+00
  0.00000000E+00  0.00000000E+00  0.00000000E+00
  0.00000000E+00  0.00000000E+00  0.00000000E+00
  0.00000000E+00  0.00000000E+00  0.00000000E+00
