SCEL4_4_1_1_0_3_3/0                     
   1.00000000000000     
    -3.9061277418397782    0.0000000000209055    3.9061277418815892
     0.0000000000209055   -3.9061277418397782    3.9061277418815892
     3.9081332142426080    3.9081332142426080    7.8142609462732056
   La   Mn   Ni   O 
     4     3     1    12
Direct
  0.2477294803732590  0.2477294803732590  0.2568115588802442
  0.5022705196267410  0.5022705196267410  0.4931884411197558
  0.7525514061520653  0.7525514061520653  0.7423457815437757
  0.9974485938479347  0.9974485938479347  0.0076542184562243
  0.1251346910655968  0.1251346910655968  0.6245959268031953
  0.3750000000000000  0.3750000000000000  0.8750000000000000
  0.6248653089344032  0.6248653089344032  0.1254040731968047
  0.8750000000000000  0.8750000000000000  0.3750000000000000
  0.5024397092863637  0.5024397092863637  0.0024968101897258
  0.2475602907136434  0.2475602907136434  0.7475031898102742
  0.0014186765178223  0.0014186765178223  0.5018321221680111
  0.7485813234821777  0.7485813234821777  0.2481678778319889
  0.5024397092863637  0.9926237712375681  0.0024968101897187
  0.2475602907136363  0.7573762287624319  0.7475031898102813
  0.0014186765178223  0.4953305247963868  0.5018321221679969
  0.7485813234821777  0.2546694752036132  0.2481678778320031
  0.9926237712375681  0.5024397092863637  0.0024968101897187
  0.7573762287624319  0.2475602907136363  0.7475031898102813
  0.4953305247963868  0.0014186765178223  0.5018321221679969
  0.2546694752036132  0.7485813234821777  0.2481678778320031
 
  0.00000000E+00  0.00000000E+00  0.00000000E+00
  0.00000000E+00  0.00000000E+00  0.00000000E+00
  0.00000000E+00  0.00000000E+00  0.00000000E+00
  0.00000000E+00  0.00000000E+00  0.00000000E+00
  0.00000000E+00  0.00000000E+00  0.00000000E+00
  0.00000000E+00  0.00000000E+00  0.00000000E+00
  0.00000000E+00  0.00000000E+00  0.00000000E+00
  0.00000000E+00  0.00000000E+00  0.00000000E+00
  0.00000000E+00  0.00000000E+00  0.00000000E+00
  0.00000000E+00  0.00000000E+00  0.00000000E+00
  0.00000000E+00  0.00000000E+00  0.00000000E+00
  0.00000000E+00  0.00000000E+00  0.00000000E+00
  0.00000000E+00  0.00000000E+00  0.00000000E+00
  0.00000000E+00  0.00000000E+00  0.00000000E+00
  0.00000000E+00  0.00000000E+00  0.00000000E+00
  0.00000000E+00  0.00000000E+00  0.00000000E+00
  0.00000000E+00  0.00000000E+00  0.00000000E+00
  0.00000000E+00  0.00000000E+00  0.00000000E+00
  0.00000000E+00  0.00000000E+00  0.00000000E+00
  0.00000000E+00  0.00000000E+00  0.00000000E+00
