SCEL4_2_1_2_0_0_1/1                     
   1.00000000000000     
     3.8569194513891656    3.8569194513891656    0.0000000000000000
     3.8569194513891656   -3.8569194513891656    0.0000000000000000
     0.0000000000000000    0.0000000000000000   -7.7248495246814786
   La   Mn   Ni   O 
     4     1     3    12
Direct
  0.5000000000000000  0.5000000000000000  0.9971130577680825
  0.0000000000000000  0.0000000000000000  0.5028869422319175
  0.5000000000000000  0.5000000000000000  0.5028869422319175
  0.0000000000000000  0.0000000000000000  0.9971130577680825
  0.0000000000000000  0.5000000000000000  0.2500000000000000
  0.5000000000000000  0.0000000000000000  0.7500000000000000
  0.0000000000000000  0.5000000000000000  0.7500000000000000
  0.5000000000000000  0.0000000000000000  0.2500000000000000
  0.0000000000000000  0.5000000000000000  0.4963310305740904
  0.5000000000000000  0.0000000000000000  0.5032399030559986
  0.0000000000000000  0.5000000000000000  0.0036689694259096
  0.5000000000000000  0.0000000000000000  0.9967600969440014
  0.7542921494075117  0.7457078505924883  0.2500000000000000
  0.2457078505924883  0.2542921494075117  0.2500000000000000
  0.7488807759292726  0.7511192240707274  0.7500000000000000
  0.2511192240707274  0.2488807759292726  0.7500000000000000
  0.7542921494075117  0.2542921494075117  0.2500000000000000
  0.2457078505924883  0.7457078505924883  0.2500000000000000
  0.7488807759292726  0.2488807759292726  0.7500000000000000
  0.2511192240707274  0.7511192240707274  0.7500000000000000
 
  0.00000000E+00  0.00000000E+00  0.00000000E+00
  0.00000000E+00  0.00000000E+00  0.00000000E+00
  0.00000000E+00  0.00000000E+00  0.00000000E+00
  0.00000000E+00  0.00000000E+00  0.00000000E+00
  0.00000000E+00  0.00000000E+00  0.00000000E+00
  0.00000000E+00  0.00000000E+00  0.00000000E+00
  0.00000000E+00  0.00000000E+00  0.00000000E+00
  0.00000000E+00  0.00000000E+00  0.00000000E+00
  0.00000000E+00  0.00000000E+00  0.00000000E+00
  0.00000000E+00  0.00000000E+00  0.00000000E+00
  0.00000000E+00  0.00000000E+00  0.00000000E+00
  0.00000000E+00  0.00000000E+00  0.00000000E+00
  0.00000000E+00  0.00000000E+00  0.00000000E+00
  0.00000000E+00  0.00000000E+00  0.00000000E+00
  0.00000000E+00  0.00000000E+00  0.00000000E+00
  0.00000000E+00  0.00000000E+00  0.00000000E+00
  0.00000000E+00  0.00000000E+00  0.00000000E+00
  0.00000000E+00  0.00000000E+00  0.00000000E+00
  0.00000000E+00  0.00000000E+00  0.00000000E+00
  0.00000000E+00  0.00000000E+00  0.00000000E+00
