SCEL6_1_1_6_0_0_0/4                     
   1.00000000000000     
     3.8801104789240055    0.0000000000000000    0.0000000000000000
     0.0000000000000000    3.8801104789240055    0.0000000000000000
     0.0000000000000000    0.0000000000000000   23.4148842925475833
   La   Mn   Ni   O 
     6     3     3    18
Direct
  0.0000000000000000  0.0000000000000000  0.1682201970354384
  0.0000000000000000  0.0000000000000000  0.3268007219134503
  0.0000000000000000  0.0000000000000000  0.5020807084107943
  0.0000000000000000  0.0000000000000000  0.6581787897280407
  0.0000000000000000  0.0000000000000000  0.8338867368329375
  0.0000000000000000  0.0000000000000000  0.0101829153514288
  0.5000000000000000  0.5000000000000000  0.7494697441234592
  0.5000000000000000  0.5000000000000000  0.9175561433361494
  0.5000000000000000  0.5000000000000000  0.4161967240771389
  0.5000000000000000  0.5000000000000000  0.5827846335221096
  0.5000000000000000  0.5000000000000000  0.2500429738502845
  0.5000000000000000  0.5000000000000000  0.0839217302966375
  0.5000000000000000  0.5000000000000000  0.8333541120778349
  0.5000000000000000  0.5000000000000000  0.6694495990783622
  0.5000000000000000  0.5000000000000000  0.4976206633818521
  0.5000000000000000  0.5000000000000000  0.3350654620821487
  0.5000000000000000  0.5000000000000000  0.1670517263300226
  0.5000000000000000  0.5000000000000000  0.9975176813798896
  0.5000000000000000  0.0000000000000000  0.9136074081408836
  0.5000000000000000  0.0000000000000000  0.7523925382719199
  0.5000000000000000  0.0000000000000000  0.5844799456839596
  0.5000000000000000  0.0000000000000000  0.4175638337851240
  0.5000000000000000  0.0000000000000000  0.2511205509962338
  0.5000000000000000  0.0000000000000000  0.0811450917178647
  0.0000000000000000  0.5000000000000000  0.9136074081408836
  0.0000000000000000  0.5000000000000000  0.7523925382719199
  0.0000000000000000  0.5000000000000000  0.5844799456839596
  0.0000000000000000  0.5000000000000000  0.4175638337851240
  0.0000000000000000  0.5000000000000000  0.2511205509962338
  0.0000000000000000  0.5000000000000000  0.0811450917178647
 
  0.00000000E+00  0.00000000E+00  0.00000000E+00
  0.00000000E+00  0.00000000E+00  0.00000000E+00
  0.00000000E+00  0.00000000E+00  0.00000000E+00
  0.00000000E+00  0.00000000E+00  0.00000000E+00
  0.00000000E+00  0.00000000E+00  0.00000000E+00
  0.00000000E+00  0.00000000E+00  0.00000000E+00
  0.00000000E+00  0.00000000E+00  0.00000000E+00
  0.00000000E+00  0.00000000E+00  0.00000000E+00
  0.00000000E+00  0.00000000E+00  0.00000000E+00
  0.00000000E+00  0.00000000E+00  0.00000000E+00
  0.00000000E+00  0.00000000E+00  0.00000000E+00
  0.00000000E+00  0.00000000E+00  0.00000000E+00
  0.00000000E+00  0.00000000E+00  0.00000000E+00
  0.00000000E+00  0.00000000E+00  0.00000000E+00
  0.00000000E+00  0.00000000E+00  0.00000000E+00
  0.00000000E+00  0.00000000E+00  0.00000000E+00
  0.00000000E+00  0.00000000E+00  0.00000000E+00
  0.00000000E+00  0.00000000E+00  0.00000000E+00
  0.00000000E+00  0.00000000E+00  0.00000000E+00
  0.00000000E+00  0.00000000E+00  0.00000000E+00
  0.00000000E+00  0.00000000E+00  0.00000000E+00
  0.00000000E+00  0.00000000E+00  0.00000000E+00
  0.00000000E+00  0.00000000E+00  0.00000000E+00
  0.00000000E+00  0.00000000E+00  0.00000000E+00
  0.00000000E+00  0.00000000E+00  0.00000000E+00
  0.00000000E+00  0.00000000E+00  0.00000000E+00
  0.00000000E+00  0.00000000E+00  0.00000000E+00
  0.00000000E+00  0.00000000E+00  0.00000000E+00
  0.00000000E+00  0.00000000E+00  0.00000000E+00
  0.00000000E+00  0.00000000E+00  0.00000000E+00
