SCEL6_3_1_2_0_2_1/7                     
   1.00000000000000     
     3.8522694254783483    3.8522694256226608   -0.0000000000366541
    -3.8565930753414075    7.7088624913313479    0.0011308773609278
    -0.0021951666703752    3.8544645922197081    7.7105005738541594
   La   Mn   Ni   O 
     6     1     5    18
Direct
  0.8355220058688531  0.8310818868373744  0.4978740014248686
  0.6673960198745874  0.6630669678731067  0.0021410923776344
  0.4992706801254130  0.5035997321268937  0.4978589076223656
  0.3311445941311462  0.3355847131626248  0.0021259985751314
  0.1680784401363127  0.1682369900675980  0.4956062296598134
  0.9985882598636877  0.9984297099324024  0.0043937703401866
  0.5833332999999996  0.0833332999999996  0.7500000000000000
  0.7501590255408814  0.2499144864435934  0.2497674624746651
  0.9168081410892270  0.4166043544877525  0.7497794633338444
  0.0833332999999996  0.5833332999999996  0.2500000000000000
  0.2498585589107734  0.7500623455122479  0.7502205366661556
  0.4165076744591190  0.9167522135564070  0.2502325375253349
  0.6655475173300118  0.1656828308284659  0.5032222345114619
  0.8334737844265661  0.3339560770316936  0.9990962541151802
  0.0004031191683751  0.5002675693031264  0.4989261923601234
  0.1662635808316253  0.6663991306968740  0.0010738076398766
  0.3331928155734332  0.8327105229683056  0.5009037458848198
  0.5011191826699886  0.0009838691715345  0.9967777654885381
  0.4184560609127388  0.9190646537871672  0.7499895987266072
  0.5833332999999996  0.0833332999999996  0.2500000000000000
  0.7482106390872616  0.2476020462128403  0.7500104012733928
  0.9171232220697547  0.4166233557774888  0.2501720915469434
  0.0833332999999996  0.5833332999999996  0.7500000000000000
  0.2495434779302457  0.7500433442225045  0.2498279084530566
  0.2541769134263632  0.2476020462129114  0.7500104012733644
  0.4160814306058143  0.4166233557774888  0.2501720915469434
  0.5833332999999996  0.5833332999999996  0.7500000000000000
  0.7505852693941861  0.7500433442225116  0.2498279084530566
  0.9124897865736372  0.9190646537870890  0.7499895987266356
  0.0833332999999996  0.0833332999999996  0.2500000000000000
 
  0.00000000E+00  0.00000000E+00  0.00000000E+00
  0.00000000E+00  0.00000000E+00  0.00000000E+00
  0.00000000E+00  0.00000000E+00  0.00000000E+00
  0.00000000E+00  0.00000000E+00  0.00000000E+00
  0.00000000E+00  0.00000000E+00  0.00000000E+00
  0.00000000E+00  0.00000000E+00  0.00000000E+00
  0.00000000E+00  0.00000000E+00  0.00000000E+00
  0.00000000E+00  0.00000000E+00  0.00000000E+00
  0.00000000E+00  0.00000000E+00  0.00000000E+00
  0.00000000E+00  0.00000000E+00  0.00000000E+00
  0.00000000E+00  0.00000000E+00  0.00000000E+00
  0.00000000E+00  0.00000000E+00  0.00000000E+00
  0.00000000E+00  0.00000000E+00  0.00000000E+00
  0.00000000E+00  0.00000000E+00  0.00000000E+00
  0.00000000E+00  0.00000000E+00  0.00000000E+00
  0.00000000E+00  0.00000000E+00  0.00000000E+00
  0.00000000E+00  0.00000000E+00  0.00000000E+00
  0.00000000E+00  0.00000000E+00  0.00000000E+00
  0.00000000E+00  0.00000000E+00  0.00000000E+00
  0.00000000E+00  0.00000000E+00  0.00000000E+00
  0.00000000E+00  0.00000000E+00  0.00000000E+00
  0.00000000E+00  0.00000000E+00  0.00000000E+00
  0.00000000E+00  0.00000000E+00  0.00000000E+00
  0.00000000E+00  0.00000000E+00  0.00000000E+00
  0.00000000E+00  0.00000000E+00  0.00000000E+00
  0.00000000E+00  0.00000000E+00  0.00000000E+00
  0.00000000E+00  0.00000000E+00  0.00000000E+00
  0.00000000E+00  0.00000000E+00  0.00000000E+00
  0.00000000E+00  0.00000000E+00  0.00000000E+00
  0.00000000E+00  0.00000000E+00  0.00000000E+00
