SCEL5_5_1_1_0_3_1/1                     
   1.00000000000000     
    -3.8765418428784315   -3.8765418428784315    0.0000000000000000
    -3.8785082385373517    3.8785082385373517    3.9207560098097236
     0.0003257127279701    3.8762161301504605   -7.8389023896644447
   La   Mn   Ni   O 
     5     3     2    15
Direct
  0.7999999999999972  0.2000000000000028  0.6000000000000014
  0.6007538861233499  0.3954090701100412  0.2015077722466998
  0.3963520467617911  0.5947534565650656  0.7927040935235894
  0.2036479532382103  0.8052465434349330  0.4072959064764063
  0.9992461138766515  0.0045909298899574  0.9984922277533030
  0.7999999999999972  0.7000000000000028  0.6000000000000014
  0.5993492582792896  0.9015367450298442  0.1986985165585864
  0.0006507417207118  0.4984632549701544  0.0013014834414165
  0.2002791343553838  0.3001351596950101  0.4005582687107605
  0.3997208656446176  0.0998648403049884  0.7994417312892352
  0.6973185168843656  0.8026276785742397  0.3946370337687171
  0.9026814831156358  0.5973723214257589  0.8053629662312787
  0.0992182720417034  0.4003325111160976  0.1984365440834210
  0.2999999999999972  0.2000000000000028  0.6000000000000014
  0.5007817279582980  0.9996674888839010  0.0015634559165818
  0.7999999999999972  0.7000000000000028  0.1000000000000014
  0.9959032914866413  0.5040076312376414  0.5010683914924670
  0.1960208580776523  0.3050927131779346  0.9031318612293546
  0.4039791419223491  0.0949072868220640  0.2968681387706411
  0.6040967085133602  0.8959923687623572  0.6989316085075359
  0.8928889968482920  0.0949072868220640  0.2968681387706411
  0.0948348999941757  0.8959923687623572  0.6989316085075359
  0.2999999999999972  0.7000000000000028  0.1000000000000014
  0.5051651000058257  0.5040076312376414  0.5010683914924670
  0.7071110031517094  0.3050927131779346  0.9031318612293546
 
  0.00000000E+00  0.00000000E+00  0.00000000E+00
  0.00000000E+00  0.00000000E+00  0.00000000E+00
  0.00000000E+00  0.00000000E+00  0.00000000E+00
  0.00000000E+00  0.00000000E+00  0.00000000E+00
  0.00000000E+00  0.00000000E+00  0.00000000E+00
  0.00000000E+00  0.00000000E+00  0.00000000E+00
  0.00000000E+00  0.00000000E+00  0.00000000E+00
  0.00000000E+00  0.00000000E+00  0.00000000E+00
  0.00000000E+00  0.00000000E+00  0.00000000E+00
  0.00000000E+00  0.00000000E+00  0.00000000E+00
  0.00000000E+00  0.00000000E+00  0.00000000E+00
  0.00000000E+00  0.00000000E+00  0.00000000E+00
  0.00000000E+00  0.00000000E+00  0.00000000E+00
  0.00000000E+00  0.00000000E+00  0.00000000E+00
  0.00000000E+00  0.00000000E+00  0.00000000E+00
  0.00000000E+00  0.00000000E+00  0.00000000E+00
  0.00000000E+00  0.00000000E+00  0.00000000E+00
  0.00000000E+00  0.00000000E+00  0.00000000E+00
  0.00000000E+00  0.00000000E+00  0.00000000E+00
  0.00000000E+00  0.00000000E+00  0.00000000E+00
  0.00000000E+00  0.00000000E+00  0.00000000E+00
  0.00000000E+00  0.00000000E+00  0.00000000E+00
  0.00000000E+00  0.00000000E+00  0.00000000E+00
  0.00000000E+00  0.00000000E+00  0.00000000E+00
  0.00000000E+00  0.00000000E+00  0.00000000E+00
