SCEL6_3_2_1_1_1_0/3                     
   1.00000000000000     
     3.8755569255367703   -3.8872066152590801    3.8722538593031950
     3.8755569255367703    3.8872066152590801    3.8722538593031950
    -3.8758736087605037    0.0000000000000000    7.7448344787707786
   La   Mn   Ni   O 
     6     3     3    18
Direct
  0.1666667000000004  0.1666667000000004  0.3333332999999996
  0.3266865226790827  0.3463467698772149  0.6657438683169730
  0.4869865301227847  0.5066467773209169  0.0009228316830274
  0.6666667000000004  0.6666667000000004  0.3333332999999996
  0.8463467698772149  0.8266865226790827  0.6657438683169730
  0.0066467773209169  0.9869865301227847  0.0009228316830274
  0.6666667000000004  0.1666667000000004  0.3333332999999996
  0.8340756645908982  0.3340756645908982  0.6684530760825496
  0.4992576354091014  0.9992576354091014  0.9982136239174508
  0.3351671107792527  0.8351671107792527  0.6650560991825500
  0.1666667000000004  0.6666667000000004  0.3333332999999996
  0.9981661892207470  0.4981661892207470  0.0016106008174503
  0.7497021229187908  0.2497021229187908  0.4992781381975533
  0.5836311770812088  0.0836311770812088  0.1673885618024471
  0.4175954610026622  0.9175954610026622  0.8380671776944553
  0.2493584967877212  0.7493584967877212  0.4991450345522424
  0.0839748032122785  0.5839748032122785  0.1675216654477580
  0.9157379389973386  0.4157379389973386  0.8285994223055440
  0.0763835384761862  0.0900262890702663  0.6667244292897294
  0.9103811023701809  0.9229522976298199  0.3333332999999996
  0.7433070109297333  0.7569497615238134  0.9999422707102781
  0.5900262890702663  0.5763835384761862  0.6667244292897294
  0.4229522976298199  0.4103811023701809  0.3333332999999996
  0.2569497615238134  0.2433070109297333  0.9999422707102781
  0.6666667000000004  0.1666667000000004  0.8333332999999996
  0.5041166203803726  0.0041166203803726  0.4953981476630176
  0.3379304279880557  0.8379304279880557  0.1614127342335365
  0.1666667000000004  0.6666667000000004  0.8333332999999996
  0.9954028720119439  0.4954028720119439  0.5052539657664639
  0.8292166796196270  0.3292166796196270  0.1712685523369828
 
  0.00000000E+00  0.00000000E+00  0.00000000E+00
  0.00000000E+00  0.00000000E+00  0.00000000E+00
  0.00000000E+00  0.00000000E+00  0.00000000E+00
  0.00000000E+00  0.00000000E+00  0.00000000E+00
  0.00000000E+00  0.00000000E+00  0.00000000E+00
  0.00000000E+00  0.00000000E+00  0.00000000E+00
  0.00000000E+00  0.00000000E+00  0.00000000E+00
  0.00000000E+00  0.00000000E+00  0.00000000E+00
  0.00000000E+00  0.00000000E+00  0.00000000E+00
  0.00000000E+00  0.00000000E+00  0.00000000E+00
  0.00000000E+00  0.00000000E+00  0.00000000E+00
  0.00000000E+00  0.00000000E+00  0.00000000E+00
  0.00000000E+00  0.00000000E+00  0.00000000E+00
  0.00000000E+00  0.00000000E+00  0.00000000E+00
  0.00000000E+00  0.00000000E+00  0.00000000E+00
  0.00000000E+00  0.00000000E+00  0.00000000E+00
  0.00000000E+00  0.00000000E+00  0.00000000E+00
  0.00000000E+00  0.00000000E+00  0.00000000E+00
  0.00000000E+00  0.00000000E+00  0.00000000E+00
  0.00000000E+00  0.00000000E+00  0.00000000E+00
  0.00000000E+00  0.00000000E+00  0.00000000E+00
  0.00000000E+00  0.00000000E+00  0.00000000E+00
  0.00000000E+00  0.00000000E+00  0.00000000E+00
  0.00000000E+00  0.00000000E+00  0.00000000E+00
  0.00000000E+00  0.00000000E+00  0.00000000E+00
  0.00000000E+00  0.00000000E+00  0.00000000E+00
  0.00000000E+00  0.00000000E+00  0.00000000E+00
  0.00000000E+00  0.00000000E+00  0.00000000E+00
  0.00000000E+00  0.00000000E+00  0.00000000E+00
  0.00000000E+00  0.00000000E+00  0.00000000E+00
