SCEL6_1_2_3_1_0_0/4                     
   1.00000000000000     
     3.8759907050943698    0.0000000000000000    0.0000000000000000
     0.0000000000000000    7.7741009209200920    0.0000000000451076
     0.0000000000000000   -3.8870504653251516   11.6655327468088732
   La   Mn   Ni   O 
     6     3     3    18
Direct
  0.0000000000000000  0.1725957867386612  0.3274897391153431
  0.0000000000000000  0.3362138333726961  0.6599804499533874
  0.0000000000000000  0.5075918320087496  0.0127996861079254
  0.0000000000000000  0.6548940523766404  0.3274897391153218
  0.0000000000000000  0.8237665165806547  0.6599804499533732
  0.0000000000000000  0.0052078540992326  0.0127996861079254
  0.5000000000000000  0.9995429916229455  0.4990859832459051
  0.5000000000000000  0.1668857852977297  0.8337714705954440
  0.5000000000000000  0.6672018990196946  0.8344036980393810
  0.5000000000000000  0.8338400677616988  0.1676802355233917
  0.5000000000000000  0.5000750694225928  0.5001501388451928
  0.5000000000000000  0.3328386879988443  0.1656774759976827
  0.5000000000000000  0.0836560939936319  0.6673122879872579
  0.5000000000000000  0.9191972184658539  0.3383943369316711
  0.5000000000000000  0.7475261884344278  0.9950523768688910
  0.5000000000000000  0.5848340540401225  0.6696682080802177
  0.5000000000000000  0.4170117483065283  0.3340233966130484
  0.5000000000000000  0.2476280696114230  0.9952561392228745
  0.5000000000000000  0.9156715108149456  0.8315963262321517
  0.5000000000000000  0.7579947643338514  0.5031723226442892
  0.5000000000000000  0.5831187917869300  0.1649386495420089
  0.5000000000000000  0.4159249154172073  0.8315963262321517
  0.5000000000000000  0.2451775583104379  0.5031723226442679
  0.5000000000000000  0.0818197577550777  0.1649386495420089
  0.0000000000000000  0.1658670640693956  0.8317340281387970
  0.0000000000000000  0.0017753472218232  0.5035506944436321
  0.0000000000000000  0.8323898000129546  0.1647797000259246
  0.0000000000000000  0.6656835974796493  0.8313670949592975
  0.0000000000000000  0.5014092637081760  0.5028185274163448
  0.0000000000000000  0.3326598799374310  0.1653198598748773
 
  0.00000000E+00  0.00000000E+00  0.00000000E+00
  0.00000000E+00  0.00000000E+00  0.00000000E+00
  0.00000000E+00  0.00000000E+00  0.00000000E+00
  0.00000000E+00  0.00000000E+00  0.00000000E+00
  0.00000000E+00  0.00000000E+00  0.00000000E+00
  0.00000000E+00  0.00000000E+00  0.00000000E+00
  0.00000000E+00  0.00000000E+00  0.00000000E+00
  0.00000000E+00  0.00000000E+00  0.00000000E+00
  0.00000000E+00  0.00000000E+00  0.00000000E+00
  0.00000000E+00  0.00000000E+00  0.00000000E+00
  0.00000000E+00  0.00000000E+00  0.00000000E+00
  0.00000000E+00  0.00000000E+00  0.00000000E+00
  0.00000000E+00  0.00000000E+00  0.00000000E+00
  0.00000000E+00  0.00000000E+00  0.00000000E+00
  0.00000000E+00  0.00000000E+00  0.00000000E+00
  0.00000000E+00  0.00000000E+00  0.00000000E+00
  0.00000000E+00  0.00000000E+00  0.00000000E+00
  0.00000000E+00  0.00000000E+00  0.00000000E+00
  0.00000000E+00  0.00000000E+00  0.00000000E+00
  0.00000000E+00  0.00000000E+00  0.00000000E+00
  0.00000000E+00  0.00000000E+00  0.00000000E+00
  0.00000000E+00  0.00000000E+00  0.00000000E+00
  0.00000000E+00  0.00000000E+00  0.00000000E+00
  0.00000000E+00  0.00000000E+00  0.00000000E+00
  0.00000000E+00  0.00000000E+00  0.00000000E+00
  0.00000000E+00  0.00000000E+00  0.00000000E+00
  0.00000000E+00  0.00000000E+00  0.00000000E+00
  0.00000000E+00  0.00000000E+00  0.00000000E+00
  0.00000000E+00  0.00000000E+00  0.00000000E+00
  0.00000000E+00  0.00000000E+00  0.00000000E+00
