SCEL6_2_1_3_0_0_1/5                     
   1.00000000000000     
     3.8643089680084799    3.8643089680084799    0.0000000000000000
     3.8643089680084799   -3.8643089680084799    0.0000000000000000
     0.0000000000000000    0.0000000000000000  -11.6122717769600978
   La   Mn   Ni   O 
     6     2     4    18
Direct
  0.5000000000000000  0.5000000000000000  0.3333332999999996
  0.0000000000000000  0.0000000000000000  0.6690296132938300
  0.5000000000000000  0.5000000000000000  0.9976370867061704
  0.0000000000000000  0.0000000000000000  0.3333332999999996
  0.5000000000000000  0.5000000000000000  0.6690296132938300
  0.0000000000000000  0.0000000000000000  0.9976370867061704
  0.5000000000000000  0.0000000000000000  0.1667320300142094
  0.0000000000000000  0.5000000000000000  0.4999346699857909
  0.5000000000000000  0.0000000000000000  0.5003672111989133
  0.0000000000000000  0.5000000000000000  0.8338406752948941
  0.0000000000000000  0.5000000000000000  0.1662994888010871
  0.5000000000000000  0.0000000000000000  0.8328259247051051
  0.0000000000000000  0.5000000000000000  0.6648456177708084
  0.5000000000000000  0.0000000000000000  0.3307957043622949
  0.0000000000000000  0.5000000000000000  0.9990110896565199
  0.5000000000000000  0.0000000000000000  0.6676556103434876
  0.0000000000000000  0.5000000000000000  0.3358708956377043
  0.5000000000000000  0.0000000000000000  0.0018210822291920
  0.7547002941486483  0.7452997058513517  0.4994184020980796
  0.2547002941486483  0.2452997058513517  0.1672482979019208
  0.7500000000000000  0.7500000000000000  0.8333332999999996
  0.2452997058513517  0.2547002941486483  0.4994184020980796
  0.7452997058513517  0.7547002941486483  0.1672482979019208
  0.2500000000000000  0.2500000000000000  0.8333332999999996
  0.7547002941486483  0.2547002941486483  0.4994184020980796
  0.2547002941486483  0.7547002941486483  0.1672482979019208
  0.7500000000000000  0.2500000000000000  0.8333332999999996
  0.2452997058513517  0.7452997058513517  0.4994184020980796
  0.7452997058513517  0.2452997058513517  0.1672482979019208
  0.2500000000000000  0.7500000000000000  0.8333332999999996
 
  0.00000000E+00  0.00000000E+00  0.00000000E+00
  0.00000000E+00  0.00000000E+00  0.00000000E+00
  0.00000000E+00  0.00000000E+00  0.00000000E+00
  0.00000000E+00  0.00000000E+00  0.00000000E+00
  0.00000000E+00  0.00000000E+00  0.00000000E+00
  0.00000000E+00  0.00000000E+00  0.00000000E+00
  0.00000000E+00  0.00000000E+00  0.00000000E+00
  0.00000000E+00  0.00000000E+00  0.00000000E+00
  0.00000000E+00  0.00000000E+00  0.00000000E+00
  0.00000000E+00  0.00000000E+00  0.00000000E+00
  0.00000000E+00  0.00000000E+00  0.00000000E+00
  0.00000000E+00  0.00000000E+00  0.00000000E+00
  0.00000000E+00  0.00000000E+00  0.00000000E+00
  0.00000000E+00  0.00000000E+00  0.00000000E+00
  0.00000000E+00  0.00000000E+00  0.00000000E+00
  0.00000000E+00  0.00000000E+00  0.00000000E+00
  0.00000000E+00  0.00000000E+00  0.00000000E+00
  0.00000000E+00  0.00000000E+00  0.00000000E+00
  0.00000000E+00  0.00000000E+00  0.00000000E+00
  0.00000000E+00  0.00000000E+00  0.00000000E+00
  0.00000000E+00  0.00000000E+00  0.00000000E+00
  0.00000000E+00  0.00000000E+00  0.00000000E+00
  0.00000000E+00  0.00000000E+00  0.00000000E+00
  0.00000000E+00  0.00000000E+00  0.00000000E+00
  0.00000000E+00  0.00000000E+00  0.00000000E+00
  0.00000000E+00  0.00000000E+00  0.00000000E+00
  0.00000000E+00  0.00000000E+00  0.00000000E+00
  0.00000000E+00  0.00000000E+00  0.00000000E+00
  0.00000000E+00  0.00000000E+00  0.00000000E+00
  0.00000000E+00  0.00000000E+00  0.00000000E+00
