SCEL4_1_4_1_1_0_0/1                     
   1.00000000000000     
     3.8811244184794051    0.0000000000000000    0.0000000000000000
     0.0000000000000000    3.8870369397869036    3.8870369397869036
     0.0000000000000000   -7.7829869895243320    7.7829869895243320
   La   Mn   Ni   O 
     4     2     2    12
Direct
  0.0000000000000000  0.5000000000000000  0.2356035649516812
  0.0000000000000000  0.0000000000000000  0.4890346950246141
  0.0000000000000000  0.5000000000000000  0.7609653049753859
  0.0000000000000000  0.0000000000000000  0.0143964350483188
  0.5000000000000000  0.5000000000000000  0.5001273769478658
  0.5000000000000000  0.0000000000000000  0.7498726230521342
  0.5000000000000000  0.5000000000000000  0.9980370127581963
  0.5000000000000000  0.0000000000000000  0.2519629872418037
  0.5000000000000000  0.7500000000000000  0.6250000000000000
  0.5000000000000000  0.2533485461253591  0.3804052733861951
  0.5000000000000000  0.7500000000000000  0.1250000000000000
  0.5000000000000000  0.2466514538746409  0.8695947266138049
  0.5000000000000000  0.7533485461253591  0.8695947266138049
  0.5000000000000000  0.2500000000000000  0.6250000000000000
  0.5000000000000000  0.7466514538746409  0.3804052733861951
  0.5000000000000000  0.2500000000000000  0.1250000000000000
  0.0000000000000000  0.0000000000000000  0.7476598292885512
  0.0000000000000000  0.5000000000000000  0.5023401707114488
  0.0000000000000000  0.0000000000000000  0.2527563576124550
  0.0000000000000000  0.5000000000000000  0.9972436423875450
 
  0.00000000E+00  0.00000000E+00  0.00000000E+00
  0.00000000E+00  0.00000000E+00  0.00000000E+00
  0.00000000E+00  0.00000000E+00  0.00000000E+00
  0.00000000E+00  0.00000000E+00  0.00000000E+00
  0.00000000E+00  0.00000000E+00  0.00000000E+00
  0.00000000E+00  0.00000000E+00  0.00000000E+00
  0.00000000E+00  0.00000000E+00  0.00000000E+00
  0.00000000E+00  0.00000000E+00  0.00000000E+00
  0.00000000E+00  0.00000000E+00  0.00000000E+00
  0.00000000E+00  0.00000000E+00  0.00000000E+00
  0.00000000E+00  0.00000000E+00  0.00000000E+00
  0.00000000E+00  0.00000000E+00  0.00000000E+00
  0.00000000E+00  0.00000000E+00  0.00000000E+00
  0.00000000E+00  0.00000000E+00  0.00000000E+00
  0.00000000E+00  0.00000000E+00  0.00000000E+00
  0.00000000E+00  0.00000000E+00  0.00000000E+00
  0.00000000E+00  0.00000000E+00  0.00000000E+00
  0.00000000E+00  0.00000000E+00  0.00000000E+00
  0.00000000E+00  0.00000000E+00  0.00000000E+00
  0.00000000E+00  0.00000000E+00  0.00000000E+00
