SCEL3_1_3_1_1_0_0/1                     
   1.00000000000000     
    -3.8671120169314972    0.0000000000000000    0.0000000000000000
     0.0000000000000000    3.8666250794292023    3.8666250795438808
     0.0000000000000000    3.8766635160728509   -7.7432885859177425
   La   Mn   Ni   O 
     3     1     2     9
Direct
  0.0000000000000000  0.0056992159416893  0.0113984318835350
  0.0000000000000000  0.6609674840583111  0.3219348681164647
  0.0000000000000000  0.3333332999999996  0.6666667000000004
  0.5000000000000000  0.8333332999999996  0.6666667000000004
  0.5000000000000000  0.4987096965946378  0.9974193931893183
  0.5000000000000000  0.1679570034053626  0.3359139068106813
  0.0000000000000000  0.5004930328721926  0.0009860657443852
  0.0000000000000000  0.1661736671278078  0.3323472342556144
  0.0000000000000000  0.8333332999999996  0.6666667000000004
  0.5000000000000000  0.1619802025121615  0.8293039109785525
  0.5000000000000000  0.8333332999999996  0.1666667000000004
  0.5000000000000000  0.5046864974878389  0.5040293890214471
  0.5000000000000000  0.3333332999999996  0.1666667000000004
  0.5000000000000000  0.9993428915335230  0.5040293890215111
  0.5000000000000000  0.6673238084664774  0.8293039109784885
 
  0.00000000E+00  0.00000000E+00  0.00000000E+00
  0.00000000E+00  0.00000000E+00  0.00000000E+00
  0.00000000E+00  0.00000000E+00  0.00000000E+00
  0.00000000E+00  0.00000000E+00  0.00000000E+00
  0.00000000E+00  0.00000000E+00  0.00000000E+00
  0.00000000E+00  0.00000000E+00  0.00000000E+00
  0.00000000E+00  0.00000000E+00  0.00000000E+00
  0.00000000E+00  0.00000000E+00  0.00000000E+00
  0.00000000E+00  0.00000000E+00  0.00000000E+00
  0.00000000E+00  0.00000000E+00  0.00000000E+00
  0.00000000E+00  0.00000000E+00  0.00000000E+00
  0.00000000E+00  0.00000000E+00  0.00000000E+00
  0.00000000E+00  0.00000000E+00  0.00000000E+00
  0.00000000E+00  0.00000000E+00  0.00000000E+00
  0.00000000E+00  0.00000000E+00  0.00000000E+00
