SCEL3_1_3_1_1_0_0/1
1.0
-3.94014471 0.00000000 0.00000000
0.00000000 3.94014471 3.94014471
0.00000000 3.94014471 -7.88028941
   La   Mn   Ni   O
   3   1   2   9
Direct
0.00000000    0.00000000    0.00000000    La
0.00000000    0.66666670    0.33333330    La
0.00000000    0.33333330    0.66666670    La
-0.50000000    0.83333330    0.66666670    Mn
-0.50000000    0.50000000    0.00000000    Ni
-0.50000000    1.16666670    0.33333330    Ni
0.00000000    0.50000000    0.00000000    O
0.00000000    1.16666670    0.33333330    O
0.00000000    0.83333330    0.66666670    O
-0.50000000    0.16666670    -0.16666670    O
-0.50000000    0.83333330    0.16666670    O
-0.50000000    0.50000000    0.50000000    O
-0.50000000    0.33333330    0.16666670    O
-0.50000000    1.00000000    0.50000000    O
-0.50000000    0.66666670    0.83333330    O
