SCEL6_6_1_1_0_4_1/3                     
   1.00000000000000     
     3.8807319405580256    3.8807319405580256    0.0000000000000000
    -3.8788833631038342    3.8788833631038342    3.8827501630556971
     3.8837029003435433   -3.8837029003435433    7.7751757377294819
   La   Mn   Ni   O 
     6     3     3    18
Direct
  0.5000000000000000  0.3329884152639124  0.8461447886238318
  0.0000000000000000  0.6677981971081053  0.6782757395329995
  0.5000000000000000  0.0000000000000000  0.5000000000000000
  0.0000000000000000  0.3322018028918947  0.3217242604670005
  0.5000000000000000  0.6670115847360876  0.1538552113761682
  0.0000000000000000  0.0000000000000000  0.0000000000000000
  0.5000000000000000  0.5000000000000000  0.5000000000000000
  0.0000000000000000  0.8333558828042058  0.3335170528834439
  0.0000000000000000  0.1666441171957942  0.6664829471165490
  0.5000000000000000  0.8335182424897951  0.8320128415461738
  0.0000000000000000  0.5000000000000000  0.0000000000000000
  0.5000000000000000  0.1664817575102049  0.1679871584538262
  0.0000000000000000  0.6720285187022981  0.1719403022042840
  0.5000000000000000  0.3351062718912132  0.3381541791807408
  0.0000000000000000  0.0000000000000000  0.5000000000000000
  0.5000000000000000  0.6648937281087868  0.6618458208192592
  0.0000000000000000  0.3279714812977019  0.8280596977957160
  0.5000000000000000  0.0000000000000000  0.0000000000000000
  0.7514871294111956  0.6692867213864204  0.4167401754865949
  0.2485128705888044  0.3307132786135796  0.5832598245134051
  0.7550109616764544  0.0012910102274546  0.7464418195114675
  0.2475630142973770  0.6634631027915816  0.9162144679682953
  0.7524369857026230  0.3365368972084184  0.0837855320317047
  0.2449890383235456  0.9987089897725454  0.2535581804885325
  0.7550109616764544  0.9987089897725454  0.2535581804885325
  0.2485128705888044  0.6692867213864204  0.4167401754865949
  0.7514871294111956  0.3307132786135796  0.5832598245134051
  0.2449890383235456  0.0012910102274546  0.7464418195114675
  0.7524369857026230  0.6634631027915816  0.9162144679682953
  0.2475630142973770  0.3365368972084184  0.0837855320317047
 
  0.00000000E+00  0.00000000E+00  0.00000000E+00
  0.00000000E+00  0.00000000E+00  0.00000000E+00
  0.00000000E+00  0.00000000E+00  0.00000000E+00
  0.00000000E+00  0.00000000E+00  0.00000000E+00
  0.00000000E+00  0.00000000E+00  0.00000000E+00
  0.00000000E+00  0.00000000E+00  0.00000000E+00
  0.00000000E+00  0.00000000E+00  0.00000000E+00
  0.00000000E+00  0.00000000E+00  0.00000000E+00
  0.00000000E+00  0.00000000E+00  0.00000000E+00
  0.00000000E+00  0.00000000E+00  0.00000000E+00
  0.00000000E+00  0.00000000E+00  0.00000000E+00
  0.00000000E+00  0.00000000E+00  0.00000000E+00
  0.00000000E+00  0.00000000E+00  0.00000000E+00
  0.00000000E+00  0.00000000E+00  0.00000000E+00
  0.00000000E+00  0.00000000E+00  0.00000000E+00
  0.00000000E+00  0.00000000E+00  0.00000000E+00
  0.00000000E+00  0.00000000E+00  0.00000000E+00
  0.00000000E+00  0.00000000E+00  0.00000000E+00
  0.00000000E+00  0.00000000E+00  0.00000000E+00
  0.00000000E+00  0.00000000E+00  0.00000000E+00
  0.00000000E+00  0.00000000E+00  0.00000000E+00
  0.00000000E+00  0.00000000E+00  0.00000000E+00
  0.00000000E+00  0.00000000E+00  0.00000000E+00
  0.00000000E+00  0.00000000E+00  0.00000000E+00
  0.00000000E+00  0.00000000E+00  0.00000000E+00
  0.00000000E+00  0.00000000E+00  0.00000000E+00
  0.00000000E+00  0.00000000E+00  0.00000000E+00
  0.00000000E+00  0.00000000E+00  0.00000000E+00
  0.00000000E+00  0.00000000E+00  0.00000000E+00
  0.00000000E+00  0.00000000E+00  0.00000000E+00
