SCEL5_1_1_5_0_0_0/4                     
   1.00000000000000     
     3.8717857235640256    0.0000000000000000    0.0000000000000000
     0.0000000000000000    3.8717857235640256    0.0000000000000000
     0.0000000000000000    0.0000000000000000   19.4194184393666269
   La   Mn   Ni   O 
     5     2     3    15
Direct
  0.0000000000000000  0.0000000000000000  0.2000000000000028
  0.0000000000000000  0.0000000000000000  0.3937883026030207
  0.0000000000000000  0.0000000000000000  0.6047103730644281
  0.0000000000000000  0.0000000000000000  0.7952896269355705
  0.0000000000000000  0.0000000000000000  0.0062116973969779
  0.5000000000000000  0.5000000000000000  0.9003184359447545
  0.5000000000000000  0.5000000000000000  0.4996815640552441
  0.5000000000000000  0.5000000000000000  0.7000000000000028
  0.5000000000000000  0.5000000000000000  0.2996784369046068
  0.5000000000000000  0.5000000000000000  0.1003215630953918
  0.5000000000000000  0.5000000000000000  0.8026310989886554
  0.5000000000000000  0.5000000000000000  0.5973689010113432
  0.5000000000000000  0.5000000000000000  0.4016577558830434
  0.5000000000000000  0.5000000000000000  0.2000000000000028
  0.5000000000000000  0.5000000000000000  0.9983422441169552
  0.5000000000000000  0.0000000000000000  0.8998542564819587
  0.5000000000000000  0.0000000000000000  0.7000000000000028
  0.5000000000000000  0.0000000000000000  0.5001457435180399
  0.5000000000000000  0.0000000000000000  0.3009559927924172
  0.5000000000000000  0.0000000000000000  0.0990440072075813
  0.0000000000000000  0.5000000000000000  0.8998542564819587
  0.0000000000000000  0.5000000000000000  0.7000000000000028
  0.0000000000000000  0.5000000000000000  0.5001457435180399
  0.0000000000000000  0.5000000000000000  0.3009559927924172
  0.0000000000000000  0.5000000000000000  0.0990440072075813
 
  0.00000000E+00  0.00000000E+00  0.00000000E+00
  0.00000000E+00  0.00000000E+00  0.00000000E+00
  0.00000000E+00  0.00000000E+00  0.00000000E+00
  0.00000000E+00  0.00000000E+00  0.00000000E+00
  0.00000000E+00  0.00000000E+00  0.00000000E+00
  0.00000000E+00  0.00000000E+00  0.00000000E+00
  0.00000000E+00  0.00000000E+00  0.00000000E+00
  0.00000000E+00  0.00000000E+00  0.00000000E+00
  0.00000000E+00  0.00000000E+00  0.00000000E+00
  0.00000000E+00  0.00000000E+00  0.00000000E+00
  0.00000000E+00  0.00000000E+00  0.00000000E+00
  0.00000000E+00  0.00000000E+00  0.00000000E+00
  0.00000000E+00  0.00000000E+00  0.00000000E+00
  0.00000000E+00  0.00000000E+00  0.00000000E+00
  0.00000000E+00  0.00000000E+00  0.00000000E+00
  0.00000000E+00  0.00000000E+00  0.00000000E+00
  0.00000000E+00  0.00000000E+00  0.00000000E+00
  0.00000000E+00  0.00000000E+00  0.00000000E+00
  0.00000000E+00  0.00000000E+00  0.00000000E+00
  0.00000000E+00  0.00000000E+00  0.00000000E+00
  0.00000000E+00  0.00000000E+00  0.00000000E+00
  0.00000000E+00  0.00000000E+00  0.00000000E+00
  0.00000000E+00  0.00000000E+00  0.00000000E+00
  0.00000000E+00  0.00000000E+00  0.00000000E+00
  0.00000000E+00  0.00000000E+00  0.00000000E+00
