SCEL6_2_1_3_0_0_1/6                     
   1.00000000000000     
     3.8668358700334489    3.8668358700334489    0.0000000000000000
     3.8668358700334489   -3.8668358700334489    0.0000000000000000
     0.0000000000000000    0.0000000000000000  -11.5936443838674350
   La   Mn   Ni   O 
     6     2     4    18
Direct
  0.5000000000000000  0.5000000000000000  0.3299344001375104
  0.0000000000000000  0.0000000000000000  0.6666667000000004
  0.5000000000000000  0.5000000000000000  0.0033988998624892
  0.0000000000000000  0.0000000000000000  0.3299344001375104
  0.5000000000000000  0.5000000000000000  0.6666667000000004
  0.0000000000000000  0.0000000000000000  0.0033988998624892
  0.0000000000000000  0.5000000000000000  0.4987842304703847
  0.0000000000000000  0.5000000000000000  0.8345490695296149
  0.5000000000000000  0.0000000000000000  0.1666667000000004
  0.5000000000000000  0.0000000000000000  0.4997855300475820
  0.0000000000000000  0.5000000000000000  0.1666667000000004
  0.5000000000000000  0.0000000000000000  0.8335477699524176
  0.0000000000000000  0.5000000000000000  0.6666667000000004
  0.5000000000000000  0.0000000000000000  0.3319293004069124
  0.0000000000000000  0.5000000000000000  0.9958383570167655
  0.5000000000000000  0.0000000000000000  0.6666667000000004
  0.0000000000000000  0.5000000000000000  0.3374949429832341
  0.5000000000000000  0.0000000000000000  0.0014039995930872
  0.7547687530307599  0.7452312469692401  0.5006132023105820
  0.2482351119869719  0.2517648880130281  0.1666667000000004
  0.7547687530307599  0.7452312469692401  0.8327200976894176
  0.2452312469692401  0.2547687530307599  0.5006132023105820
  0.7517648880130281  0.7482351119869719  0.1666667000000004
  0.2452312469692401  0.2547687530307599  0.8327200976894176
  0.7547687530307599  0.2547687530307599  0.5006132023105820
  0.2482351119869719  0.7482351119869719  0.1666667000000004
  0.7547687530307599  0.2547687530307599  0.8327200976894176
  0.2452312469692401  0.7452312469692401  0.5006132023105820
  0.7517648880130281  0.2517648880130281  0.1666667000000004
  0.2452312469692401  0.7452312469692401  0.8327200976894176
 
  0.00000000E+00  0.00000000E+00  0.00000000E+00
  0.00000000E+00  0.00000000E+00  0.00000000E+00
  0.00000000E+00  0.00000000E+00  0.00000000E+00
  0.00000000E+00  0.00000000E+00  0.00000000E+00
  0.00000000E+00  0.00000000E+00  0.00000000E+00
  0.00000000E+00  0.00000000E+00  0.00000000E+00
  0.00000000E+00  0.00000000E+00  0.00000000E+00
  0.00000000E+00  0.00000000E+00  0.00000000E+00
  0.00000000E+00  0.00000000E+00  0.00000000E+00
  0.00000000E+00  0.00000000E+00  0.00000000E+00
  0.00000000E+00  0.00000000E+00  0.00000000E+00
  0.00000000E+00  0.00000000E+00  0.00000000E+00
  0.00000000E+00  0.00000000E+00  0.00000000E+00
  0.00000000E+00  0.00000000E+00  0.00000000E+00
  0.00000000E+00  0.00000000E+00  0.00000000E+00
  0.00000000E+00  0.00000000E+00  0.00000000E+00
  0.00000000E+00  0.00000000E+00  0.00000000E+00
  0.00000000E+00  0.00000000E+00  0.00000000E+00
  0.00000000E+00  0.00000000E+00  0.00000000E+00
  0.00000000E+00  0.00000000E+00  0.00000000E+00
  0.00000000E+00  0.00000000E+00  0.00000000E+00
  0.00000000E+00  0.00000000E+00  0.00000000E+00
  0.00000000E+00  0.00000000E+00  0.00000000E+00
  0.00000000E+00  0.00000000E+00  0.00000000E+00
  0.00000000E+00  0.00000000E+00  0.00000000E+00
  0.00000000E+00  0.00000000E+00  0.00000000E+00
  0.00000000E+00  0.00000000E+00  0.00000000E+00
  0.00000000E+00  0.00000000E+00  0.00000000E+00
  0.00000000E+00  0.00000000E+00  0.00000000E+00
  0.00000000E+00  0.00000000E+00  0.00000000E+00
