SCEL4_1_1_4_0_0_0/2
1.0
3.94014471 0.00000000 0.00000000
0.00000000 3.94014471 0.00000000
0.00000000 0.00000000 15.76057883
   La   Mn   Ni   O
   4   1   3   12
Direct
0.00000000    0.00000000    0.25000000    La
0.00000000    0.00000000    0.50000000    La
0.00000000    0.00000000    0.75000000    La
0.00000000    0.00000000    0.00000000    La
0.50000000    0.50000000    0.87500000    Mn
0.50000000    0.50000000    0.12500000    Ni
0.50000000    0.50000000    0.37500000    Ni
0.50000000    0.50000000    0.62500000    Ni
0.50000000    0.50000000    0.75000000    O
0.50000000    0.50000000    0.50000000    O
0.50000000    0.50000000    0.25000000    O
0.50000000    0.50000000    0.00000000    O
0.50000000    0.00000000    0.87500000    O
0.50000000    0.00000000    0.62500000    O
0.50000000    0.00000000    0.37500000    O
0.50000000    0.00000000    0.12500000    O
0.00000000    0.50000000    0.87500000    O
0.00000000    0.50000000    0.62500000    O
0.00000000    0.50000000    0.37500000    O
0.00000000    0.50000000    0.12500000    O
