SCEL4_2_2_1_1_0_1/0                     
   1.00000000000000     
     0.0000000000000000    3.9005240798190033    3.9005240798190033
     3.9057787133888930   -3.9024506851520178    3.9024506851520178
     3.9057787133888930    3.9024506851520178   -3.9024506851520178
   La   Mn   Ni   O 
     4     3     1    12
Direct
  0.5000000000000000  0.2500000000000000  0.7500000000000000
  0.0000000000000000  0.4941559825113089  0.4941559825113089
  0.5000000000000000  0.7500000000000000  0.2500000000000000
  0.0000000000000000  0.0058440174886911  0.0058440174886911
  0.0000000000000000  0.4993694913543436  0.0006305086456564
  0.5000000000000000  0.7500000000000000  0.7500000000000000
  0.0000000000000000  0.0006305086456564  0.4993694913543436
  0.5000000000000000  0.2500000000000000  0.2500000000000000
  0.7536386848128060  0.8774345157906680  0.6225654842093320
  0.2463613151871940  0.6225654842093320  0.8774345157906680
  0.7529102462465218  0.3759866896361714  0.1240133103638286
  0.2470897537534782  0.1240133103638286  0.3759866896361714
  0.7529102462465218  0.1240133103638286  0.3759866896361714
  0.2463613151871940  0.8774345157906680  0.6225654842093320
  0.7536386848128060  0.6225654842093320  0.8774345157906680
  0.2470897537534782  0.3759866896361714  0.1240133103638286
  0.0000000000000000  0.7500000000000000  0.2500000000000000
  0.5000000000000000  0.5056156475816209  0.5056156475816209
  0.0000000000000000  0.2500000000000000  0.7500000000000000
  0.5000000000000000  0.9943843524183791  0.9943843524183791
 
  0.00000000E+00  0.00000000E+00  0.00000000E+00
  0.00000000E+00  0.00000000E+00  0.00000000E+00
  0.00000000E+00  0.00000000E+00  0.00000000E+00
  0.00000000E+00  0.00000000E+00  0.00000000E+00
  0.00000000E+00  0.00000000E+00  0.00000000E+00
  0.00000000E+00  0.00000000E+00  0.00000000E+00
  0.00000000E+00  0.00000000E+00  0.00000000E+00
  0.00000000E+00  0.00000000E+00  0.00000000E+00
  0.00000000E+00  0.00000000E+00  0.00000000E+00
  0.00000000E+00  0.00000000E+00  0.00000000E+00
  0.00000000E+00  0.00000000E+00  0.00000000E+00
  0.00000000E+00  0.00000000E+00  0.00000000E+00
  0.00000000E+00  0.00000000E+00  0.00000000E+00
  0.00000000E+00  0.00000000E+00  0.00000000E+00
  0.00000000E+00  0.00000000E+00  0.00000000E+00
  0.00000000E+00  0.00000000E+00  0.00000000E+00
  0.00000000E+00  0.00000000E+00  0.00000000E+00
  0.00000000E+00  0.00000000E+00  0.00000000E+00
  0.00000000E+00  0.00000000E+00  0.00000000E+00
  0.00000000E+00  0.00000000E+00  0.00000000E+00
