SCEL5_5_1_1_0_1_1/3                     
   1.00000000000000     
     3.8675058539275136    0.0000000000319667    3.8675058539914469
     3.8675058539275136    3.8675058539914469    0.0000000000319667
    -3.8843144167289707    7.7518202610323259    7.7518202610323259
   La   Mn   Ni   O 
     5     2     3    15
Direct
  0.8000893930984745  0.8000893930984745  0.5997318207045694
  0.6000000000000014  0.6000000000000014  0.2000000000000028
  0.3999106069015212  0.3999106069015212  0.8002681792954291
  0.2011946849498756  0.2011946849498756  0.3964159451503235
  0.9988053150501273  0.9988053150501273  0.0035840548496751
  0.7000955073475481  0.7000955073475481  0.8997134779573557
  0.4999044926524547  0.4999044926524547  0.5002865220426429
  0.9000117926820224  0.9000117926820224  0.2999646219538619
  0.1000000000000014  0.1000000000000014  0.7000000000000028
  0.2999882073179663  0.2999882073179663  0.1000353780461367
  0.2041994566303131  0.6968618209579489  0.4020769014538814
  0.4058914032020482  0.8962069674916293  0.8016946618147429
  0.6000000000000014  0.1000000000000014  0.2000000000000028
  0.7941085967979475  0.3037930325083664  0.5983053381852557
  0.9958005433696968  0.5031381790420539  0.9979230985461172
  0.6968618209579489  0.2041994566303131  0.4020769014538814
  0.8962069674916293  0.4058914032020482  0.8016946618147429
  0.1000000000000014  0.6000000000000014  0.2000000000000028
  0.3037930325083664  0.7941085967979475  0.5983053381852557
  0.5031381790420539  0.9958005433696968  0.9979230985461172
  0.3037930325083522  0.3037930325083522  0.5983053381852983
  0.5031381790420397  0.5031381790420397  0.9979230985461527
  0.6968618209579631  0.6968618209579631  0.4020769014538459
  0.8962069674916435  0.8962069674916435  0.8016946618147003
  0.1000000000000014  0.1000000000000014  0.2000000000000028
 
  0.00000000E+00  0.00000000E+00  0.00000000E+00
  0.00000000E+00  0.00000000E+00  0.00000000E+00
  0.00000000E+00  0.00000000E+00  0.00000000E+00
  0.00000000E+00  0.00000000E+00  0.00000000E+00
  0.00000000E+00  0.00000000E+00  0.00000000E+00
  0.00000000E+00  0.00000000E+00  0.00000000E+00
  0.00000000E+00  0.00000000E+00  0.00000000E+00
  0.00000000E+00  0.00000000E+00  0.00000000E+00
  0.00000000E+00  0.00000000E+00  0.00000000E+00
  0.00000000E+00  0.00000000E+00  0.00000000E+00
  0.00000000E+00  0.00000000E+00  0.00000000E+00
  0.00000000E+00  0.00000000E+00  0.00000000E+00
  0.00000000E+00  0.00000000E+00  0.00000000E+00
  0.00000000E+00  0.00000000E+00  0.00000000E+00
  0.00000000E+00  0.00000000E+00  0.00000000E+00
  0.00000000E+00  0.00000000E+00  0.00000000E+00
  0.00000000E+00  0.00000000E+00  0.00000000E+00
  0.00000000E+00  0.00000000E+00  0.00000000E+00
  0.00000000E+00  0.00000000E+00  0.00000000E+00
  0.00000000E+00  0.00000000E+00  0.00000000E+00
  0.00000000E+00  0.00000000E+00  0.00000000E+00
  0.00000000E+00  0.00000000E+00  0.00000000E+00
  0.00000000E+00  0.00000000E+00  0.00000000E+00
  0.00000000E+00  0.00000000E+00  0.00000000E+00
  0.00000000E+00  0.00000000E+00  0.00000000E+00
