SCEL6_1_3_2_1_0_0/0                     
   1.00000000000000     
    -3.9146924508721583    0.0000000000000000    0.0000000000000000
     0.0000000000000000    3.9320712583628059    7.8434829338423953
     0.0000000000000000    7.8680507403371447   -7.8454368469855140
   La   Mn   Ni   O 
     6     5     1    18
Direct
  0.0000000000000000  0.6544306631677443  0.1624175925954745
  0.0000000000000000  0.3332914845707506  0.3238637737320289
  0.0000000000000000  0.0032351608272521  0.4992921522554497
  0.0000000000000000  0.6634315391727483  0.6673745477445507
  0.0000000000000000  0.3333751154292486  0.8428028262679703
  0.0000000000000000  0.0122360368322560  0.0042491074045259
  0.5000000000000000  0.9990927357968076  0.7495326454820912
  0.5000000000000000  0.6680011979010629  0.9168811244645951
  0.5000000000000000  0.3333332999999996  0.5833332999999996
  0.5000000000000000  0.6675739642031928  0.4171340545179092
  0.5000000000000000  0.9986655020989375  0.2497855755354053
  0.5000000000000000  0.3333332999999996  0.0833332999999996
  0.5000000000000000  0.5026862474166620  0.9988042694589154
  0.5000000000000000  0.8296698226829875  0.8328753110153357
  0.5000000000000000  0.1660213043377254  0.6648816547866474
  0.5000000000000000  0.5006453956622750  0.5017850452133530
  0.5000000000000000  0.8369967773170117  0.3337912889846635
  0.5000000000000000  0.1639804525833384  0.1678624305410850
  0.5000000000000000  0.5004083023378740  0.7487221566104481
  0.5000000000000000  0.8333332999999996  0.5833332999999996
  0.5000000000000000  0.1662583976621264  0.4179445433895523
  0.5000000000000000  0.5014927319688809  0.2514574746295324
  0.5000000000000000  0.8333332999999996  0.0833332999999996
  0.5000000000000000  0.1651739680311195  0.9152092253704680
  0.0000000000000000  0.6649558989225710  0.9161110655205960
  0.0000000000000000  0.9986671840230059  0.7495055346351549
  0.0000000000000000  0.3333332999999996  0.5833332999999996
  0.0000000000000000  0.6679995159769945  0.4171611653648455
  0.0000000000000000  0.0017108010774223  0.2505556344794044
  0.0000000000000000  0.3333332999999996  0.0833332999999996
 
  0.00000000E+00  0.00000000E+00  0.00000000E+00
  0.00000000E+00  0.00000000E+00  0.00000000E+00
  0.00000000E+00  0.00000000E+00  0.00000000E+00
  0.00000000E+00  0.00000000E+00  0.00000000E+00
  0.00000000E+00  0.00000000E+00  0.00000000E+00
  0.00000000E+00  0.00000000E+00  0.00000000E+00
  0.00000000E+00  0.00000000E+00  0.00000000E+00
  0.00000000E+00  0.00000000E+00  0.00000000E+00
  0.00000000E+00  0.00000000E+00  0.00000000E+00
  0.00000000E+00  0.00000000E+00  0.00000000E+00
  0.00000000E+00  0.00000000E+00  0.00000000E+00
  0.00000000E+00  0.00000000E+00  0.00000000E+00
  0.00000000E+00  0.00000000E+00  0.00000000E+00
  0.00000000E+00  0.00000000E+00  0.00000000E+00
  0.00000000E+00  0.00000000E+00  0.00000000E+00
  0.00000000E+00  0.00000000E+00  0.00000000E+00
  0.00000000E+00  0.00000000E+00  0.00000000E+00
  0.00000000E+00  0.00000000E+00  0.00000000E+00
  0.00000000E+00  0.00000000E+00  0.00000000E+00
  0.00000000E+00  0.00000000E+00  0.00000000E+00
  0.00000000E+00  0.00000000E+00  0.00000000E+00
  0.00000000E+00  0.00000000E+00  0.00000000E+00
  0.00000000E+00  0.00000000E+00  0.00000000E+00
  0.00000000E+00  0.00000000E+00  0.00000000E+00
  0.00000000E+00  0.00000000E+00  0.00000000E+00
  0.00000000E+00  0.00000000E+00  0.00000000E+00
  0.00000000E+00  0.00000000E+00  0.00000000E+00
  0.00000000E+00  0.00000000E+00  0.00000000E+00
  0.00000000E+00  0.00000000E+00  0.00000000E+00
  0.00000000E+00  0.00000000E+00  0.00000000E+00
