SCEL3_3_1_1_0_1_1/0
1.0
-3.94014471 0.00000000 -3.94014471
0.00000000 -3.94014471 3.94014471
-3.94014471 3.94014471 3.94014471
   La   Mn   Ni   O
   3   2   1   9
Direct
-0.00000000    0.00000000    0.00000000    La
0.66666670    0.33333330    0.33333330    La
0.33333330    0.66666670    0.66666670    La
0.00000000    0.00000000    0.50000000    Mn
-0.33333330    0.33333330    0.83333330    Mn
-0.66666670    -0.33333330    0.16666670    Ni
-0.33333330    -0.16666670    0.33333330    O
0.33333330    0.16666670    0.66666670    O
0.00000000    0.50000000    1.00000000    O
-0.50000000    0.00000000    0.00000000    O
0.16666670    0.33333330    0.33333330    O
-0.16666670    0.66666670    0.66666670    O
-0.50000000    -0.50000000    0.00000000    O
0.16666670    -0.16666670    0.33333330    O
-0.16666670    0.16666670    0.66666670    O
