SCEL6_1_6_1_1_0_0/4                     
   1.00000000000000     
     3.8795683580255815    0.0000000000000000    0.0000000000000000
     0.0000000000000000    3.8843641710665948    3.8843641710665948
     0.0000000000000000  -11.6625047958969912   11.6625047958969912
   La   Mn   Ni   O 
     6     3     3    18
Direct
  0.0000000000000000  0.5000000000000000  0.1598773216569285
  0.0000000000000000  0.0000000000000000  0.3309513342921377
  0.0000000000000000  0.5000000000000000  0.4960763752985144
  0.0000000000000000  0.0000000000000000  0.6596004128873574
  0.0000000000000000  0.5000000000000000  0.8418706497500850
  0.0000000000000000  0.0000000000000000  0.0109943025377675
  0.5000000000000000  0.5000000000000000  0.6674526054661598
  0.5000000000000000  0.0000000000000000  0.8334761592015028
  0.5000000000000000  0.5000000000000000  0.3324578359572357
  0.5000000000000000  0.0000000000000000  0.4990909656147409
  0.5000000000000000  0.0000000000000000  0.1681359852371500
  0.5000000000000000  0.5000000000000000  0.9992743110045552
  0.5000000000000000  0.7508179103227377  0.7497268667099490
  0.5000000000000000  0.2555348934862067  0.5866344245459132
  0.5000000000000000  0.7420183414587598  0.4152742446877227
  0.5000000000000000  0.2528482080077765  0.2526744913960002
  0.5000000000000000  0.7512711171419397  0.0828984236891515
  0.5000000000000000  0.2475101681595859  0.9127626091829839
  0.5000000000000000  0.7524898318404141  0.9127626091829839
  0.5000000000000000  0.2491820896772623  0.7497268667099490
  0.5000000000000000  0.7444651065137933  0.5866344245459132
  0.5000000000000000  0.2579816585412402  0.4152742446877227
  0.5000000000000000  0.7471517919922235  0.2526744913960002
  0.5000000000000000  0.2487288828580603  0.0828984236891515
  0.0000000000000000  0.0000000000000000  0.8313038236334691
  0.0000000000000000  0.5000000000000000  0.6673670236491773
  0.0000000000000000  0.0000000000000000  0.5026126407431946
  0.0000000000000000  0.5000000000000000  0.3345634149428633
  0.0000000000000000  0.0000000000000000  0.1670364581988864
  0.0000000000000000  0.5000000000000000  0.9979162595048479
 
  0.00000000E+00  0.00000000E+00  0.00000000E+00
  0.00000000E+00  0.00000000E+00  0.00000000E+00
  0.00000000E+00  0.00000000E+00  0.00000000E+00
  0.00000000E+00  0.00000000E+00  0.00000000E+00
  0.00000000E+00  0.00000000E+00  0.00000000E+00
  0.00000000E+00  0.00000000E+00  0.00000000E+00
  0.00000000E+00  0.00000000E+00  0.00000000E+00
  0.00000000E+00  0.00000000E+00  0.00000000E+00
  0.00000000E+00  0.00000000E+00  0.00000000E+00
  0.00000000E+00  0.00000000E+00  0.00000000E+00
  0.00000000E+00  0.00000000E+00  0.00000000E+00
  0.00000000E+00  0.00000000E+00  0.00000000E+00
  0.00000000E+00  0.00000000E+00  0.00000000E+00
  0.00000000E+00  0.00000000E+00  0.00000000E+00
  0.00000000E+00  0.00000000E+00  0.00000000E+00
  0.00000000E+00  0.00000000E+00  0.00000000E+00
  0.00000000E+00  0.00000000E+00  0.00000000E+00
  0.00000000E+00  0.00000000E+00  0.00000000E+00
  0.00000000E+00  0.00000000E+00  0.00000000E+00
  0.00000000E+00  0.00000000E+00  0.00000000E+00
  0.00000000E+00  0.00000000E+00  0.00000000E+00
  0.00000000E+00  0.00000000E+00  0.00000000E+00
  0.00000000E+00  0.00000000E+00  0.00000000E+00
  0.00000000E+00  0.00000000E+00  0.00000000E+00
  0.00000000E+00  0.00000000E+00  0.00000000E+00
  0.00000000E+00  0.00000000E+00  0.00000000E+00
  0.00000000E+00  0.00000000E+00  0.00000000E+00
  0.00000000E+00  0.00000000E+00  0.00000000E+00
  0.00000000E+00  0.00000000E+00  0.00000000E+00
  0.00000000E+00  0.00000000E+00  0.00000000E+00
