SCEL6_1_6_1_1_0_0/3                     
   1.00000000000000     
     3.8787660362139098    0.0000000000000000    0.0000000000000000
     0.0000000000000000    3.8888767898776373    3.8888767898776373
     0.0000000000000000  -11.7123701289495479   11.7123701289495479
   La   Mn   Ni   O 
     6     3     3    18
Direct
  0.0000000000000000  0.5000000000000000  0.1666667000000004
  0.0000000000000000  0.0000000000000000  0.3206433686517940
  0.0000000000000000  0.5000000000000000  0.4880475840595295
  0.0000000000000000  0.0000000000000000  0.6666667000000004
  0.0000000000000000  0.5000000000000000  0.8452857159404701
  0.0000000000000000  0.0000000000000000  0.0126899313482056
  0.5000000000000000  0.5000000000000000  0.6666667000000004
  0.5000000000000000  0.0000000000000000  0.8337911379585421
  0.5000000000000000  0.0000000000000000  0.4995421620414575
  0.5000000000000000  0.5000000000000000  0.3325346583799416
  0.5000000000000000  0.0000000000000000  0.1666667000000004
  0.5000000000000000  0.5000000000000000  0.0007986416200580
  0.5000000000000000  0.7547261852642464  0.7491063448675135
  0.5000000000000000  0.2452738147357536  0.5842269551324861
  0.5000000000000000  0.7499988958260602  0.4202188680908279
  0.5000000000000000  0.2468109776259126  0.2498314436330418
  0.5000000000000000  0.7531890223740874  0.0835018563669578
  0.5000000000000000  0.2500011041739398  0.9131145319091729
  0.5000000000000000  0.7499988958260602  0.9131145319091729
  0.5000000000000000  0.2452738147357536  0.7491063448675135
  0.5000000000000000  0.7547261852642464  0.5842269551324861
  0.5000000000000000  0.2500011041739398  0.4202188680908279
  0.5000000000000000  0.7531890223740874  0.2498314436330418
  0.5000000000000000  0.2468109776259126  0.0835018563669578
  0.0000000000000000  0.0000000000000000  0.8303849254857454
  0.0000000000000000  0.5000000000000000  0.6666667000000004
  0.0000000000000000  0.0000000000000000  0.5029483745142542
  0.0000000000000000  0.5000000000000000  0.3347997521793502
  0.0000000000000000  0.0000000000000000  0.1666667000000004
  0.0000000000000000  0.5000000000000000  0.9985335478206494
 
  0.00000000E+00  0.00000000E+00  0.00000000E+00
  0.00000000E+00  0.00000000E+00  0.00000000E+00
  0.00000000E+00  0.00000000E+00  0.00000000E+00
  0.00000000E+00  0.00000000E+00  0.00000000E+00
  0.00000000E+00  0.00000000E+00  0.00000000E+00
  0.00000000E+00  0.00000000E+00  0.00000000E+00
  0.00000000E+00  0.00000000E+00  0.00000000E+00
  0.00000000E+00  0.00000000E+00  0.00000000E+00
  0.00000000E+00  0.00000000E+00  0.00000000E+00
  0.00000000E+00  0.00000000E+00  0.00000000E+00
  0.00000000E+00  0.00000000E+00  0.00000000E+00
  0.00000000E+00  0.00000000E+00  0.00000000E+00
  0.00000000E+00  0.00000000E+00  0.00000000E+00
  0.00000000E+00  0.00000000E+00  0.00000000E+00
  0.00000000E+00  0.00000000E+00  0.00000000E+00
  0.00000000E+00  0.00000000E+00  0.00000000E+00
  0.00000000E+00  0.00000000E+00  0.00000000E+00
  0.00000000E+00  0.00000000E+00  0.00000000E+00
  0.00000000E+00  0.00000000E+00  0.00000000E+00
  0.00000000E+00  0.00000000E+00  0.00000000E+00
  0.00000000E+00  0.00000000E+00  0.00000000E+00
  0.00000000E+00  0.00000000E+00  0.00000000E+00
  0.00000000E+00  0.00000000E+00  0.00000000E+00
  0.00000000E+00  0.00000000E+00  0.00000000E+00
  0.00000000E+00  0.00000000E+00  0.00000000E+00
  0.00000000E+00  0.00000000E+00  0.00000000E+00
  0.00000000E+00  0.00000000E+00  0.00000000E+00
  0.00000000E+00  0.00000000E+00  0.00000000E+00
  0.00000000E+00  0.00000000E+00  0.00000000E+00
  0.00000000E+00  0.00000000E+00  0.00000000E+00
