SCEL6_2_1_3_0_1_1/6                     
   1.00000000000000     
     3.8653766992724514   -3.8653766992724514    0.0000000000000000
     3.8653766992724514    3.8653766992724514    0.0000000000000000
    -3.8653766992724514    0.0000000000000000   11.6061118133139356
   La   Mn   Ni   O 
     6     2     4    18
Direct
  0.1678089075804152  0.1678089075804152  0.3356177151608222
  0.3321910924195848  0.3321910924195848  0.6643822848391778
  0.5000000000000000  0.5000000000000000  0.0000000000000000
  0.6678089075804152  0.6678089075804152  0.3356177151608222
  0.8321910924195848  0.8321910924195848  0.6643822848391778
  0.0000000000000000  0.0000000000000000  0.0000000000000000
  0.9167443843413636  0.4167443843413636  0.8334886686827190
  0.5832556156586364  0.0832556156586364  0.1665113313172810
  0.7500000000000000  0.2500000000000000  0.5000000000000000
  0.4163468960813006  0.9163468960813006  0.8326936921626000
  0.2500000000000000  0.7500000000000000  0.5000000000000000
  0.0836531039186994  0.5836531039186994  0.1673063078374000
  0.8345931691145765  0.3345931691145765  0.6691864382291541
  0.6654068308854235  0.1654068308854235  0.3308135617708459
  0.5013829564598993  0.0013829564598993  0.0027659129198057
  0.3312664906371765  0.8312664906371765  0.6625330812743613
  0.1687335093628235  0.6687335093628235  0.3374669187256387
  0.9986170435401007  0.4986170435401007  0.9972340870801943
  0.1624677979716438  0.1713164454828160  0.8337841434544586
  0.0022265981765557  0.9977734018234372  0.5000000000000000
  0.8286835545171840  0.8375322020283562  0.1662158565455414
  0.6713164454828160  0.6624677979716438  0.8337841434544586
  0.4977734018234443  0.5022265981765628  0.5000000000000000
  0.3375322020283562  0.3286835545171840  0.1662158565455414
  0.6713164454828160  0.1713164454828160  0.8337841434544586
  0.4977734018234443  0.9977734018234372  0.5000000000000000
  0.3375322020283562  0.8375322020283562  0.1662158565455414
  0.1624677979716438  0.6624677979716438  0.8337841434544586
  0.0022265981765557  0.5022265981765628  0.5000000000000000
  0.8286835545171840  0.3286835545171840  0.1662158565455414
 
  0.00000000E+00  0.00000000E+00  0.00000000E+00
  0.00000000E+00  0.00000000E+00  0.00000000E+00
  0.00000000E+00  0.00000000E+00  0.00000000E+00
  0.00000000E+00  0.00000000E+00  0.00000000E+00
  0.00000000E+00  0.00000000E+00  0.00000000E+00
  0.00000000E+00  0.00000000E+00  0.00000000E+00
  0.00000000E+00  0.00000000E+00  0.00000000E+00
  0.00000000E+00  0.00000000E+00  0.00000000E+00
  0.00000000E+00  0.00000000E+00  0.00000000E+00
  0.00000000E+00  0.00000000E+00  0.00000000E+00
  0.00000000E+00  0.00000000E+00  0.00000000E+00
  0.00000000E+00  0.00000000E+00  0.00000000E+00
  0.00000000E+00  0.00000000E+00  0.00000000E+00
  0.00000000E+00  0.00000000E+00  0.00000000E+00
  0.00000000E+00  0.00000000E+00  0.00000000E+00
  0.00000000E+00  0.00000000E+00  0.00000000E+00
  0.00000000E+00  0.00000000E+00  0.00000000E+00
  0.00000000E+00  0.00000000E+00  0.00000000E+00
  0.00000000E+00  0.00000000E+00  0.00000000E+00
  0.00000000E+00  0.00000000E+00  0.00000000E+00
  0.00000000E+00  0.00000000E+00  0.00000000E+00
  0.00000000E+00  0.00000000E+00  0.00000000E+00
  0.00000000E+00  0.00000000E+00  0.00000000E+00
  0.00000000E+00  0.00000000E+00  0.00000000E+00
  0.00000000E+00  0.00000000E+00  0.00000000E+00
  0.00000000E+00  0.00000000E+00  0.00000000E+00
  0.00000000E+00  0.00000000E+00  0.00000000E+00
  0.00000000E+00  0.00000000E+00  0.00000000E+00
  0.00000000E+00  0.00000000E+00  0.00000000E+00
  0.00000000E+00  0.00000000E+00  0.00000000E+00
