SCEL5_5_1_1_0_3_1/3                     
   1.00000000000000     
    -3.8687493906357964   -3.8687493906357964    0.0000000000000000
    -3.8778693226432881    3.8778693226432881    3.8720044893556729
    -0.0018527947341179    3.8706021853699148   -7.7386086324127676
   La   Mn   Ni   O 
     5     2     3    15
Direct
  0.8025658479421196  0.2033810423365452  0.6051316958842392
  0.5974341520578790  0.3966189576634562  0.1948683041157651
  0.3995755450794292  0.5901209643112253  0.7991510901588654
  0.2000000000000028  0.7999999999999972  0.3999999999999986
  0.0004244549205694  0.0098790356887761  0.0008489098411317
  0.8007453890684317  0.6996876076172782  0.6014907781368564
  0.5992546109315668  0.9003123923827232  0.1985092218631479
  0.0008096278241823  0.5014696634705871  0.0016192556483574
  0.2000000000000028  0.2999999999999972  0.3999999999999986
  0.3991903721758163  0.0985303365294143  0.7983807443516397
  0.7000000000000028  0.7999999999999972  0.3999999999999986
  0.8977581233884138  0.6013153748234288  0.7955162467768346
  0.1010697540426122  0.3987061171084463  0.2021395080852244
  0.2989302459573864  0.2012938828915551  0.5978604919147870
  0.5022418766115848  0.9986846251765726  0.0044837532231625
  0.7964686615340497  0.7031575758130089  0.1020619654827541
  0.9966797599172494  0.5046043890138989  0.5022748311902774
  0.2000000000000028  0.2999999999999972  0.8999999999999986
  0.4033202400827491  0.0953956109861025  0.2977251688097198
  0.6035313384659489  0.8968424241869926  0.6979380345172501
  0.8944049287269706  0.0953956109861025  0.2977251688097198
  0.0944066960513013  0.8968424241869926  0.6979380345172501
  0.3055933039486973  0.7031575758130089  0.1020619654827541
  0.5055950712730350  0.5046043890138989  0.5022748311902774
  0.7000000000000028  0.2999999999999972  0.8999999999999986
 
  0.00000000E+00  0.00000000E+00  0.00000000E+00
  0.00000000E+00  0.00000000E+00  0.00000000E+00
  0.00000000E+00  0.00000000E+00  0.00000000E+00
  0.00000000E+00  0.00000000E+00  0.00000000E+00
  0.00000000E+00  0.00000000E+00  0.00000000E+00
  0.00000000E+00  0.00000000E+00  0.00000000E+00
  0.00000000E+00  0.00000000E+00  0.00000000E+00
  0.00000000E+00  0.00000000E+00  0.00000000E+00
  0.00000000E+00  0.00000000E+00  0.00000000E+00
  0.00000000E+00  0.00000000E+00  0.00000000E+00
  0.00000000E+00  0.00000000E+00  0.00000000E+00
  0.00000000E+00  0.00000000E+00  0.00000000E+00
  0.00000000E+00  0.00000000E+00  0.00000000E+00
  0.00000000E+00  0.00000000E+00  0.00000000E+00
  0.00000000E+00  0.00000000E+00  0.00000000E+00
  0.00000000E+00  0.00000000E+00  0.00000000E+00
  0.00000000E+00  0.00000000E+00  0.00000000E+00
  0.00000000E+00  0.00000000E+00  0.00000000E+00
  0.00000000E+00  0.00000000E+00  0.00000000E+00
  0.00000000E+00  0.00000000E+00  0.00000000E+00
  0.00000000E+00  0.00000000E+00  0.00000000E+00
  0.00000000E+00  0.00000000E+00  0.00000000E+00
  0.00000000E+00  0.00000000E+00  0.00000000E+00
  0.00000000E+00  0.00000000E+00  0.00000000E+00
  0.00000000E+00  0.00000000E+00  0.00000000E+00
