SCEL4_1_4_1_2_0_0/1                     
   1.00000000000000     
    -3.8797602390425245    0.0000000000000000    0.0000000000000000
     0.0000000000000000    0.0000000000978923    7.8059891086015130
     0.0000000000000000    7.7278296051746471   -3.9029945591548993
   La   Mn   Ni   O 
     4     2     2    12
Direct
  0.0000000000000000  0.2657101728394977  0.5000000000000426
  0.0000000000000000  0.5000000000000000  0.0000000000000000
  0.0000000000000000  0.7342898271605023  0.4999999999999574
  0.0000000000000000  0.0000000000000000  0.0000000000000000
  0.5000000000000000  0.8753178627002356  0.2506357254004996
  0.5000000000000000  0.1246821372997644  0.7493642745995004
  0.5000000000000000  0.3737590986533093  0.2475181973065901
  0.5000000000000000  0.6262409013466979  0.7524818026934099
  0.5000000000000000  0.8822642670076632  0.7510581440610054
  0.5000000000000000  0.6312061229466792  0.2489418559390586
  0.5000000000000000  0.3687938770533208  0.7510581440609414
  0.5000000000000000  0.1177357329923368  0.2489418559389946
  0.5000000000000000  0.0000000000000000  0.5000000000000000
  0.5000000000000000  0.7531384469528106  0.0062768939055644
  0.5000000000000000  0.5000000000000000  0.5000000000000000
  0.5000000000000000  0.2468615530471894  0.9937231060944356
  0.0000000000000000  0.1254844513050912  0.7509689026101967
  0.0000000000000000  0.8745155486949088  0.2490310973898033
  0.0000000000000000  0.6248480564100944  0.7496961128201747
  0.0000000000000000  0.3751519435899056  0.2503038871798253
 
  0.00000000E+00  0.00000000E+00  0.00000000E+00
  0.00000000E+00  0.00000000E+00  0.00000000E+00
  0.00000000E+00  0.00000000E+00  0.00000000E+00
  0.00000000E+00  0.00000000E+00  0.00000000E+00
  0.00000000E+00  0.00000000E+00  0.00000000E+00
  0.00000000E+00  0.00000000E+00  0.00000000E+00
  0.00000000E+00  0.00000000E+00  0.00000000E+00
  0.00000000E+00  0.00000000E+00  0.00000000E+00
  0.00000000E+00  0.00000000E+00  0.00000000E+00
  0.00000000E+00  0.00000000E+00  0.00000000E+00
  0.00000000E+00  0.00000000E+00  0.00000000E+00
  0.00000000E+00  0.00000000E+00  0.00000000E+00
  0.00000000E+00  0.00000000E+00  0.00000000E+00
  0.00000000E+00  0.00000000E+00  0.00000000E+00
  0.00000000E+00  0.00000000E+00  0.00000000E+00
  0.00000000E+00  0.00000000E+00  0.00000000E+00
  0.00000000E+00  0.00000000E+00  0.00000000E+00
  0.00000000E+00  0.00000000E+00  0.00000000E+00
  0.00000000E+00  0.00000000E+00  0.00000000E+00
  0.00000000E+00  0.00000000E+00  0.00000000E+00
