SCEL4_2_1_2_0_1_1/0                     
   1.00000000000000     
     3.9014389144753521   -3.9014389144753521    0.0000000000000000
     3.9014389144753521    3.9014389144753521    0.0000000000000000
    -3.9014389144753521    0.0000000000000000    7.8486950632231549
   La   Mn   Ni   O 
     4     3     1    12
Direct
  0.2473941302490488  0.2473941302490488  0.4947882604980975
  0.5026058697509512  0.5026058697509512  0.0052117395019025
  0.7473941302490488  0.7473941302490488  0.4947882604980975
  0.0026058697509512  0.0026058697509512  0.0052117395019025
  0.3738967618615305  0.8738967618615305  0.7477935237230682
  0.6250000000000000  0.1250000000000000  0.2500000000000000
  0.8761032381384695  0.3761032381384695  0.7522064762769318
  0.1250000000000000  0.6250000000000000  0.2500000000000000
  0.7533501283132509  0.2533501283132509  0.5067002566265018
  0.4966498716867491  0.9966498716867491  0.9932997433734982
  0.2508195083378126  0.7508195083378055  0.5016390166756253
  0.9991804916621945  0.4991804916621874  0.9983609833243747
  0.1250000000000000  0.1250000000000000  0.7500000000000000
  0.8705085015023002  0.8794914984976998  0.2500000000000000
  0.6250000000000000  0.6250000000000000  0.7500000000000000
  0.3794914984976998  0.3705085015023002  0.2500000000000000
  0.6250000000000000  0.1250000000000000  0.7500000000000000
  0.3794914984976998  0.8794914984976998  0.2500000000000000
  0.1250000000000000  0.6250000000000000  0.7500000000000000
  0.8705085015023002  0.3705085015023002  0.2500000000000000
 
  0.00000000E+00  0.00000000E+00  0.00000000E+00
  0.00000000E+00  0.00000000E+00  0.00000000E+00
  0.00000000E+00  0.00000000E+00  0.00000000E+00
  0.00000000E+00  0.00000000E+00  0.00000000E+00
  0.00000000E+00  0.00000000E+00  0.00000000E+00
  0.00000000E+00  0.00000000E+00  0.00000000E+00
  0.00000000E+00  0.00000000E+00  0.00000000E+00
  0.00000000E+00  0.00000000E+00  0.00000000E+00
  0.00000000E+00  0.00000000E+00  0.00000000E+00
  0.00000000E+00  0.00000000E+00  0.00000000E+00
  0.00000000E+00  0.00000000E+00  0.00000000E+00
  0.00000000E+00  0.00000000E+00  0.00000000E+00
  0.00000000E+00  0.00000000E+00  0.00000000E+00
  0.00000000E+00  0.00000000E+00  0.00000000E+00
  0.00000000E+00  0.00000000E+00  0.00000000E+00
  0.00000000E+00  0.00000000E+00  0.00000000E+00
  0.00000000E+00  0.00000000E+00  0.00000000E+00
  0.00000000E+00  0.00000000E+00  0.00000000E+00
  0.00000000E+00  0.00000000E+00  0.00000000E+00
  0.00000000E+00  0.00000000E+00  0.00000000E+00
