SCEL4_2_1_2_0_1_1/0
1.0
3.94014471 -3.94014471 0.00000000
3.94014471 3.94014471 0.00000000
-3.94014471 0.00000000 7.88028941
   La   Mn   Ni   O
   4   3   1   12
Direct
0.25000000    0.25000000    0.50000000    La
0.50000000    0.50000000    0.00000000    La
0.75000000    0.75000000    0.50000000    La
0.00000000    0.00000000    0.00000000    La
0.37500000    0.87500000    0.75000000    Mn
0.62500000    1.12500000    0.25000000    Mn
0.87500000    1.37500000    0.75000000    Mn
0.12500000    0.62500000    0.25000000    Ni
0.75000000    1.25000000    0.50000000    O
0.50000000    1.00000000    0.00000000    O
0.25000000    0.75000000    0.50000000    O
0.00000000    0.50000000    0.00000000    O
1.12500000    1.12500000    0.75000000    O
0.87500000    0.87500000    0.25000000    O
0.62500000    0.62500000    0.75000000    O
0.37500000    0.37500000    0.25000000    O
0.62500000    1.12500000    0.75000000    O
0.37500000    0.87500000    0.25000000    O
0.12500000    0.62500000    0.75000000    O
-0.12500000    0.37500000    0.25000000    O
