SCEL6_1_2_3_0_0_0/7                     
   1.00000000000000     
     3.8553350303183112    0.0000000000000000    0.0000000000000000
     0.0000000000000000    7.7199001420470976    0.0000000000000000
     0.0000000000000000    0.0000000000000000   11.5508041667204520
   La   Mn   Ni   O 
     6     1     5    18
Direct
  0.0000000000000000  0.5007325012419557  0.3333332999999996
  0.0000000000000000  0.0052339663773324  0.6630445768795497
  0.0000000000000000  0.4947660336226676  0.0036221231204507
  0.0000000000000000  0.9992674987580443  0.3333332999999996
  0.0000000000000000  0.4947660336226676  0.6630445768795497
  0.0000000000000000  0.0052339663773324  0.0036221231204507
  0.5000000000000000  0.7500000000000000  0.8333332999999996
  0.5000000000000000  0.2500000000000000  0.4991256981798315
  0.5000000000000000  0.7500000000000000  0.1665996823523344
  0.5000000000000000  0.2500000000000000  0.8333332999999996
  0.5000000000000000  0.7500000000000000  0.5000670176476660
  0.5000000000000000  0.2500000000000000  0.1675410018201688
  0.5000000000000000  0.7500000000000000  0.6688094611020432
  0.5000000000000000  0.2500000000000000  0.3333332999999996
  0.5000000000000000  0.7500000000000000  0.9978572388979572
  0.5000000000000000  0.2500000000000000  0.6653851445845476
  0.5000000000000000  0.7500000000000000  0.3333332999999996
  0.5000000000000000  0.2500000000000000  0.0012815554154528
  0.5000000000000000  0.5041963783976513  0.8333332999999996
  0.5000000000000000  0.0003778463911175  0.5004784482152829
  0.5000000000000000  0.4996221536088825  0.1661882517847175
  0.5000000000000000  0.9958036216023487  0.8333332999999996
  0.5000000000000000  0.4996221536088825  0.5004784482152829
  0.5000000000000000  0.0003778463911175  0.1661882517847175
  0.0000000000000000  0.7500000000000000  0.8333332999999996
  0.0000000000000000  0.2500000000000000  0.5008393505360758
  0.0000000000000000  0.7500000000000000  0.1667048150887140
  0.0000000000000000  0.2500000000000000  0.8333332999999996
  0.0000000000000000  0.7500000000000000  0.4999618849112863
  0.0000000000000000  0.2500000000000000  0.1658273494639246
 
  0.00000000E+00  0.00000000E+00  0.00000000E+00
  0.00000000E+00  0.00000000E+00  0.00000000E+00
  0.00000000E+00  0.00000000E+00  0.00000000E+00
  0.00000000E+00  0.00000000E+00  0.00000000E+00
  0.00000000E+00  0.00000000E+00  0.00000000E+00
  0.00000000E+00  0.00000000E+00  0.00000000E+00
  0.00000000E+00  0.00000000E+00  0.00000000E+00
  0.00000000E+00  0.00000000E+00  0.00000000E+00
  0.00000000E+00  0.00000000E+00  0.00000000E+00
  0.00000000E+00  0.00000000E+00  0.00000000E+00
  0.00000000E+00  0.00000000E+00  0.00000000E+00
  0.00000000E+00  0.00000000E+00  0.00000000E+00
  0.00000000E+00  0.00000000E+00  0.00000000E+00
  0.00000000E+00  0.00000000E+00  0.00000000E+00
  0.00000000E+00  0.00000000E+00  0.00000000E+00
  0.00000000E+00  0.00000000E+00  0.00000000E+00
  0.00000000E+00  0.00000000E+00  0.00000000E+00
  0.00000000E+00  0.00000000E+00  0.00000000E+00
  0.00000000E+00  0.00000000E+00  0.00000000E+00
  0.00000000E+00  0.00000000E+00  0.00000000E+00
  0.00000000E+00  0.00000000E+00  0.00000000E+00
  0.00000000E+00  0.00000000E+00  0.00000000E+00
  0.00000000E+00  0.00000000E+00  0.00000000E+00
  0.00000000E+00  0.00000000E+00  0.00000000E+00
  0.00000000E+00  0.00000000E+00  0.00000000E+00
  0.00000000E+00  0.00000000E+00  0.00000000E+00
  0.00000000E+00  0.00000000E+00  0.00000000E+00
  0.00000000E+00  0.00000000E+00  0.00000000E+00
  0.00000000E+00  0.00000000E+00  0.00000000E+00
  0.00000000E+00  0.00000000E+00  0.00000000E+00
