SCEL6_3_2_1_0_1_0/0                     
   1.00000000000000     
     3.9164709419658887    0.0000000000000000    3.9164709420119896
     0.0000000000000000   -7.8557236595682038    0.0000000000000000
     3.9112920050288729    0.0000000000000000   -7.8277629371470780
   La   Mn   Ni   O 
     6     5     1    18
Direct
  0.3353629241478089  0.5022250163889126  0.6707259482956474
  0.6646370758521911  0.9977749836110874  0.3292740517043526
  0.0000000000000000  0.5053638949865658  0.0000000000000000
  0.3353629241478089  0.9977749836110874  0.6707259482956474
  0.6646370758521911  0.5022250163889126  0.3292740517043526
  0.0000000000000000  0.9946361050134342  0.0000000000000000
  0.8334730383519329  0.7500000000000000  0.6669461767038953
  0.1669968699511344  0.2500000000000000  0.3339936399022676
  0.5000000000000000  0.2500000000000000  0.0000000000000000
  0.1665269616480671  0.7500000000000000  0.3330538232961047
  0.8330031300488656  0.2500000000000000  0.6660063600977324
  0.5000000000000000  0.7500000000000000  0.0000000000000000
  0.0000000000000000  0.2500000000000000  0.5000000000000000
  0.6671009087231070  0.7500000000000000  0.8320613721203856
  0.3337134920621665  0.2500000000000000  0.1672294500395992
  0.0000000000000000  0.7500000000000000  0.5000000000000000
  0.6662865079378335  0.2500000000000000  0.8327705499604008
  0.3328990912768930  0.7500000000000000  0.1679386278796144
  0.1668569395446866  0.4989932114354048  0.3337137790893649
  0.8331430604553134  0.0010067885645952  0.6662862209106351
  0.5000000000000000  0.4953050067374747  0.0000000000000000
  0.1668569395446866  0.0010067885645952  0.3337137790893649
  0.8331430604553134  0.4989932114354048  0.6662862209106351
  0.5000000000000000  0.0046949932625253  0.0000000000000000
  0.8335158579774244  0.2500000000000000  0.1672294500395992
  0.5000000000000000  0.7500000000000000  0.5000000000000000
  0.1664841420225756  0.2500000000000000  0.8327705499604008
  0.8350394366026919  0.7500000000000000  0.1679386278796002
  0.5000000000000000  0.2500000000000000  0.5000000000000000
  0.1649605633973081  0.7500000000000000  0.8320613721203998
 
  0.00000000E+00  0.00000000E+00  0.00000000E+00
  0.00000000E+00  0.00000000E+00  0.00000000E+00
  0.00000000E+00  0.00000000E+00  0.00000000E+00
  0.00000000E+00  0.00000000E+00  0.00000000E+00
  0.00000000E+00  0.00000000E+00  0.00000000E+00
  0.00000000E+00  0.00000000E+00  0.00000000E+00
  0.00000000E+00  0.00000000E+00  0.00000000E+00
  0.00000000E+00  0.00000000E+00  0.00000000E+00
  0.00000000E+00  0.00000000E+00  0.00000000E+00
  0.00000000E+00  0.00000000E+00  0.00000000E+00
  0.00000000E+00  0.00000000E+00  0.00000000E+00
  0.00000000E+00  0.00000000E+00  0.00000000E+00
  0.00000000E+00  0.00000000E+00  0.00000000E+00
  0.00000000E+00  0.00000000E+00  0.00000000E+00
  0.00000000E+00  0.00000000E+00  0.00000000E+00
  0.00000000E+00  0.00000000E+00  0.00000000E+00
  0.00000000E+00  0.00000000E+00  0.00000000E+00
  0.00000000E+00  0.00000000E+00  0.00000000E+00
  0.00000000E+00  0.00000000E+00  0.00000000E+00
  0.00000000E+00  0.00000000E+00  0.00000000E+00
  0.00000000E+00  0.00000000E+00  0.00000000E+00
  0.00000000E+00  0.00000000E+00  0.00000000E+00
  0.00000000E+00  0.00000000E+00  0.00000000E+00
  0.00000000E+00  0.00000000E+00  0.00000000E+00
  0.00000000E+00  0.00000000E+00  0.00000000E+00
  0.00000000E+00  0.00000000E+00  0.00000000E+00
  0.00000000E+00  0.00000000E+00  0.00000000E+00
  0.00000000E+00  0.00000000E+00  0.00000000E+00
  0.00000000E+00  0.00000000E+00  0.00000000E+00
  0.00000000E+00  0.00000000E+00  0.00000000E+00
