SCEL6_3_2_1_0_1_0/0
1.0
3.94014471 0.00000000 3.94014471
0.00000000 -7.88028941 0.00000000
3.94014471 0.00000000 -7.88028941
   La   Mn   Ni   O
   6   5   1   18
Direct
0.33333330    0.50000000    0.66666670    La
0.66666670    0.00000000    0.33333330    La
0.00000000    0.50000000    0.00000000    La
0.33333330    0.00000000    0.66666670    La
0.66666670    0.50000000    0.33333330    La
0.00000000    0.00000000    0.00000000    La
0.83333330    -0.25000000    0.66666670    Mn
1.16666670    0.25000000    0.33333330    Mn
0.50000000    0.25000000    0.00000000    Mn
1.16666670    -0.25000000    0.33333330    Mn
0.83333330    0.25000000    0.66666670    Mn
0.50000000    -0.25000000    0.00000000    Ni
1.00000000    0.25000000    0.50000000    O
0.66666670    -0.25000000    0.83333330    O
0.33333330    0.25000000    0.16666670    O
1.00000000    -0.25000000    0.50000000    O
0.66666670    0.25000000    0.83333330    O
0.33333330    -0.25000000    0.16666670    O
1.16666670    0.50000000    0.33333330    O
0.83333330    0.00000000    0.66666670    O
0.50000000    0.50000000    0.00000000    O
1.16666670    0.00000000    0.33333330    O
0.83333330    0.50000000    0.66666670    O
0.50000000    0.00000000    0.00000000    O
0.83333330    0.25000000    0.16666670    O
0.50000000    -0.25000000    0.50000000    O
0.16666670    0.25000000    -0.16666670    O
0.83333330    -0.25000000    0.16666670    O
0.50000000    0.25000000    0.50000000    O
0.16666670    -0.25000000    -0.16666670    O
