SCEL4_2_2_1_1_0_1/1
1.0
0.00000000 3.94014471 3.94014471
3.94014471 -3.94014471 3.94014471
3.94014471 3.94014471 -3.94014471
   La   Mn   Ni   O
   4   2   2   12
Direct
0.50000000    0.25000000    0.75000000    La
0.00000000    0.50000000    0.50000000    La
0.50000000    0.75000000    0.25000000    La
0.00000000    0.00000000    0.00000000    La
0.50000000    0.75000000    0.75000000    Mn
1.00000000    1.00000000    0.50000000    Mn
0.50000000    0.25000000    0.25000000    Ni
1.00000000    0.50000000    1.00000000    Ni
0.75000000    0.87500000    0.62500000    O
0.25000000    0.62500000    0.87500000    O
0.75000000    0.37500000    1.12500000    O
0.25000000    0.12500000    0.37500000    O
0.75000000    1.12500000    0.37500000    O
0.25000000    0.87500000    0.62500000    O
0.75000000    0.62500000    0.87500000    O
0.25000000    0.37500000    0.12500000    O
1.00000000    0.75000000    0.25000000    O
0.50000000    0.50000000    0.50000000    O
1.00000000    0.25000000    0.75000000    O
0.50000000    0.00000000    0.00000000    O
