SCEL6_6_1_1_0_5_5/0                     
   1.00000000000000     
     3.9191283503141339    0.0000000000000000   -3.9191283503141339
    -3.9191283503141339    3.9191283503141339    0.0000000000000000
     7.8422148552180238    7.8422148552180229    7.8422148552180238
   La   Mn   Ni   O 
     6     5     1    18
Direct
  0.6666667000000004  0.3333332999999996  0.8337794365053597
  0.3333332999999996  0.6666667000000004  0.6662205634946403
  0.0000000000000000  0.0000000000000000  0.4934481857018653
  0.6666667000000004  0.3333332999999996  0.3279671445688095
  0.3333332999999996  0.6666667000000004  0.1720328554311905
  0.0000000000000000  0.0000000000000000  0.0065518142981347
  0.6666667000000004  0.3333332999999996  0.5827299831682780
  0.3333332999999996  0.6666667000000004  0.4158138897404200
  0.0000000000000000  0.0000000000000000  0.7500000000000000
  0.3333332999999996  0.6666667000000004  0.9172700168317220
  0.6666667000000004  0.3333332999999996  0.0841861102595800
  0.0000000000000000  0.0000000000000000  0.2500000000000000
  0.6634905715935844  0.8317452357967952  0.3346820379427839
  0.0071123295784332  0.5035561647892166  0.4986519209409934
  0.3293399855095700  0.1646700427547927  0.6679642993859218
  0.6706600144904300  0.8353299572452073  0.8320357006140782
  0.9928876704215668  0.4964438352107834  0.0013480790590066
  0.3365094284064156  0.1682547642032048  0.1653179620572161
  0.1682547642032048  0.3365094284064156  0.3346820379427839
  0.4964438352107834  0.9928876704215668  0.4986519209409934
  0.8353299572452073  0.6706600144904300  0.6679642993859218
  0.1646700427547927  0.3293399855095700  0.8320357006140782
  0.5035561647892166  0.0071123295784332  0.0013480790590066
  0.8317452357967952  0.6634905715935844  0.1653179620572161
  0.1682547642032048  0.8317452357967952  0.3346820379427839
  0.4964438352107834  0.5035561647892166  0.4986519209409934
  0.8353299572452073  0.1646700427547927  0.6679642993859218
  0.1646700427547927  0.8353299572452073  0.8320357006140782
  0.5035561647892166  0.4964438352107834  0.0013480790590066
  0.8317452357967952  0.1682547642032048  0.1653179620572161
 
  0.00000000E+00  0.00000000E+00  0.00000000E+00
  0.00000000E+00  0.00000000E+00  0.00000000E+00
  0.00000000E+00  0.00000000E+00  0.00000000E+00
  0.00000000E+00  0.00000000E+00  0.00000000E+00
  0.00000000E+00  0.00000000E+00  0.00000000E+00
  0.00000000E+00  0.00000000E+00  0.00000000E+00
  0.00000000E+00  0.00000000E+00  0.00000000E+00
  0.00000000E+00  0.00000000E+00  0.00000000E+00
  0.00000000E+00  0.00000000E+00  0.00000000E+00
  0.00000000E+00  0.00000000E+00  0.00000000E+00
  0.00000000E+00  0.00000000E+00  0.00000000E+00
  0.00000000E+00  0.00000000E+00  0.00000000E+00
  0.00000000E+00  0.00000000E+00  0.00000000E+00
  0.00000000E+00  0.00000000E+00  0.00000000E+00
  0.00000000E+00  0.00000000E+00  0.00000000E+00
  0.00000000E+00  0.00000000E+00  0.00000000E+00
  0.00000000E+00  0.00000000E+00  0.00000000E+00
  0.00000000E+00  0.00000000E+00  0.00000000E+00
  0.00000000E+00  0.00000000E+00  0.00000000E+00
  0.00000000E+00  0.00000000E+00  0.00000000E+00
  0.00000000E+00  0.00000000E+00  0.00000000E+00
  0.00000000E+00  0.00000000E+00  0.00000000E+00
  0.00000000E+00  0.00000000E+00  0.00000000E+00
  0.00000000E+00  0.00000000E+00  0.00000000E+00
  0.00000000E+00  0.00000000E+00  0.00000000E+00
  0.00000000E+00  0.00000000E+00  0.00000000E+00
  0.00000000E+00  0.00000000E+00  0.00000000E+00
  0.00000000E+00  0.00000000E+00  0.00000000E+00
  0.00000000E+00  0.00000000E+00  0.00000000E+00
  0.00000000E+00  0.00000000E+00  0.00000000E+00
