SCEL6_3_2_1_0_1_0/5                     
   1.00000000000000     
     3.8614366824890825    0.0000000000000000    3.8614366826071591
     0.0000000000000000   -7.7374820441332215    0.0000000000000000
     3.8753268169512154    0.0000000000000000   -7.7367634898758810
   La   Mn   Ni   O 
     6     2     4    18
Direct
  0.3350655226595904  0.4974996907540614  0.6701311453192531
  0.6649344773404096  0.9974996907540614  0.3298688546807469
  0.0000000000000000  0.5000000000000000  0.0000000000000000
  0.3350655226595904  0.0025003092459386  0.6701311453192531
  0.6649344773404096  0.5025003092459386  0.3298688546807469
  0.0000000000000000  0.0000000000000000  0.0000000000000000
  0.8330045113008424  0.7500000000000000  0.6660091226016931
  0.1669954886991576  0.2500000000000000  0.3339908773983069
  0.1668772086766594  0.7500000000000000  0.3337543173532538
  0.4999103333057064  0.2500000000000000  0.9998206666113489
  0.8331227913233406  0.2500000000000000  0.6662456826467462
  0.5000896666942936  0.7500000000000000  0.0001793333886511
  0.0021901484165241  0.2500000000000000  0.4977045003810758
  0.6685205274935271  0.7500000000000000  0.8304837277615960
  0.3314794725064729  0.2500000000000000  0.1695162722384040
  0.9978098515834759  0.7500000000000000  0.5022954996189242
  0.6664048913376845  0.2500000000000000  0.8331693656238812
  0.3335951086623155  0.7500000000000000  0.1668306343761188
  0.1667530460823485  0.4952465460616224  0.3335059921647101
  0.8332469539176515  0.9952465460616224  0.6664940078352899
  0.5000000000000000  0.5000000000000000  0.0000000000000000
  0.1667530460823485  0.0047534539383776  0.3335059921647101
  0.8332469539176515  0.5047534539383776  0.6664940078352899
  0.5000000000000000  0.0000000000000000  0.0000000000000000
  0.8380366997317807  0.2500000000000000  0.1695162722383330
  0.5044856480353062  0.7500000000000000  0.5022954996188531
  0.1667645742862049  0.2500000000000000  0.8331693656238812
  0.8332354257137951  0.7500000000000000  0.1668306343761188
  0.4955143519646938  0.2500000000000000  0.4977045003811469
  0.1619633002682193  0.7500000000000000  0.8304837277616670
 
  0.00000000E+00  0.00000000E+00  0.00000000E+00
  0.00000000E+00  0.00000000E+00  0.00000000E+00
  0.00000000E+00  0.00000000E+00  0.00000000E+00
  0.00000000E+00  0.00000000E+00  0.00000000E+00
  0.00000000E+00  0.00000000E+00  0.00000000E+00
  0.00000000E+00  0.00000000E+00  0.00000000E+00
  0.00000000E+00  0.00000000E+00  0.00000000E+00
  0.00000000E+00  0.00000000E+00  0.00000000E+00
  0.00000000E+00  0.00000000E+00  0.00000000E+00
  0.00000000E+00  0.00000000E+00  0.00000000E+00
  0.00000000E+00  0.00000000E+00  0.00000000E+00
  0.00000000E+00  0.00000000E+00  0.00000000E+00
  0.00000000E+00  0.00000000E+00  0.00000000E+00
  0.00000000E+00  0.00000000E+00  0.00000000E+00
  0.00000000E+00  0.00000000E+00  0.00000000E+00
  0.00000000E+00  0.00000000E+00  0.00000000E+00
  0.00000000E+00  0.00000000E+00  0.00000000E+00
  0.00000000E+00  0.00000000E+00  0.00000000E+00
  0.00000000E+00  0.00000000E+00  0.00000000E+00
  0.00000000E+00  0.00000000E+00  0.00000000E+00
  0.00000000E+00  0.00000000E+00  0.00000000E+00
  0.00000000E+00  0.00000000E+00  0.00000000E+00
  0.00000000E+00  0.00000000E+00  0.00000000E+00
  0.00000000E+00  0.00000000E+00  0.00000000E+00
  0.00000000E+00  0.00000000E+00  0.00000000E+00
  0.00000000E+00  0.00000000E+00  0.00000000E+00
  0.00000000E+00  0.00000000E+00  0.00000000E+00
  0.00000000E+00  0.00000000E+00  0.00000000E+00
  0.00000000E+00  0.00000000E+00  0.00000000E+00
  0.00000000E+00  0.00000000E+00  0.00000000E+00
