SCEL5_1_1_5_0_0_0/5
1.0
3.94014471 0.00000000 0.00000000
0.00000000 3.94014471 0.00000000
0.00000000 0.00000000 19.70072353
   La   Mn   Ni   O
   5   1   4   15
Direct
0.00000000    0.00000000    0.20000000    La
0.00000000    0.00000000    0.40000000    La
0.00000000    0.00000000    0.60000000    La
0.00000000    0.00000000    0.80000000    La
0.00000000    0.00000000    0.00000000    La
0.50000000    0.50000000    0.90000000    Mn
0.50000000    0.50000000    0.70000000    Ni
0.50000000    0.50000000    0.50000000    Ni
0.50000000    0.50000000    0.30000000    Ni
0.50000000    0.50000000    0.10000000    Ni
0.50000000    0.50000000    0.80000000    O
0.50000000    0.50000000    0.60000000    O
0.50000000    0.50000000    0.40000000    O
0.50000000    0.50000000    0.20000000    O
0.50000000    0.50000000    0.00000000    O
0.50000000    0.00000000    0.90000000    O
0.50000000    0.00000000    0.70000000    O
0.50000000    0.00000000    0.50000000    O
0.50000000    0.00000000    0.30000000    O
0.50000000    0.00000000    0.10000000    O
0.00000000    0.50000000    0.90000000    O
0.00000000    0.50000000    0.70000000    O
0.00000000    0.50000000    0.50000000    O
0.00000000    0.50000000    0.30000000    O
0.00000000    0.50000000    0.10000000    O
