ALGO = Fast
EDIFF = 0.001
ENCUT = 520.0
IBRION = 2
ICHARG = 1
ISIF = 3
ISMEAR = 0
ISPIN = 2
LDAU = .TRUE.
LDAUPRINT = 1
LDAUTYPE = 2
LMAXMIX = 6
LORBIT = 11
LREAL = Auto
LWAVE = .FALSE.
NELM = 100
NSW = 99
PREC = Accurate
SIGMA = 0.05
MAGMOM = 2*0 1*4 1*3 6*0
LDAUL = 0 2 2 0
LDAUU = 0.0 3.9 6.2 0.0
LDAUJ = 0.0 0.0 0.0 0.0
