SCEL2_1_2_1_1_0_0/0
1.0
-3.94014471 0.00000000 0.00000000
0.00000000 3.94014471 3.94014471
0.00000000 3.94014471 -3.94014471
   La   Mn   Ni   O
   2   1   1   6
Direct
0.00000000    0.00000000    0.00000000    La
0.00000000    0.50000000    0.50000000    La
-0.50000000    1.00000000    0.50000000    Mn
-0.50000000    0.50000000    0.00000000    Ni
0.00000000    0.50000000    0.00000000    O
0.00000000    1.00000000    0.50000000    O
-0.50000000    0.25000000    -0.25000000    O
-0.50000000    0.75000000    0.25000000    O
-0.50000000    0.25000000    0.25000000    O
-0.50000000    0.75000000    0.75000000    O
