SCEL6_6_1_1_0_4_1/4                     
   1.00000000000000     
     3.8818010157282745    3.8818010157282745    0.0000000000000000
    -3.8804354721440313    3.8804354721440313    3.8825040058397526
     3.8784947714762783   -3.8784947714762783    7.7611160631337013
   La   Mn   Ni   O 
     6     3     3    18
Direct
  0.5000000000000000  0.3313020082424956  0.8414064305305615
  0.0000000000000000  0.6606005072564045  0.6741384721256338
  0.5000000000000000  0.0040927230470018  0.5020493240677411
  0.0000000000000000  0.3308067756162458  0.3235910388747101
  0.5000000000000000  0.6565683576983830  0.1599515108861738
  0.0000000000000000  0.0152014386939214  0.9982606383320913
  0.5000000000000000  0.4974818239431258  0.4999072810442939
  0.0000000000000000  0.8343196771665120  0.3332671770537559
  0.5000000000000000  0.8343597982302740  0.8335237353092424
  0.0000000000000000  0.1663411621842812  0.6649406217072453
  0.0000000000000000  0.5020511169886248  0.9998851574237477
  0.5000000000000000  0.1638142185798159  0.1682119232104426
  0.0000000000000000  0.6703700745996244  0.1723352097418669
  0.5000000000000000  0.3375420376147744  0.3382140329842045
  0.0000000000000000  0.9963860723871534  0.4970020085701421
  0.5000000000000000  0.6672983559457606  0.6653202343476394
  0.0000000000000000  0.3345905125198598  0.8301597894328410
  0.5000000000000000  0.9962515011552284  0.9955116362555998
  0.7491511141278764  0.6672244318839660  0.4175128241648878
  0.2568619224211233  0.3376277221645836  0.5804897128172541
  0.7446878080118964  0.9951168974265272  0.7498857791285545
  0.2567622756896242  0.6704547728609001  0.9142100595998812
  0.7491036337663317  0.3327522826339404  0.0859403914454759
  0.2439405294721055  0.9971348120953465  0.2531231218949657
  0.7560594705278945  0.9971348120953465  0.2531231218949657
  0.2508488858721236  0.6672244318839660  0.4175128241648878
  0.7431380775788767  0.3376277221645836  0.5804897128172541
  0.2553121919881036  0.9951168974265272  0.7498857791285545
  0.7432377243103758  0.6704547728609001  0.9142100595998812
  0.2508963662336683  0.3327522826339404  0.0859403914454759
 
  0.00000000E+00  0.00000000E+00  0.00000000E+00
  0.00000000E+00  0.00000000E+00  0.00000000E+00
  0.00000000E+00  0.00000000E+00  0.00000000E+00
  0.00000000E+00  0.00000000E+00  0.00000000E+00
  0.00000000E+00  0.00000000E+00  0.00000000E+00
  0.00000000E+00  0.00000000E+00  0.00000000E+00
  0.00000000E+00  0.00000000E+00  0.00000000E+00
  0.00000000E+00  0.00000000E+00  0.00000000E+00
  0.00000000E+00  0.00000000E+00  0.00000000E+00
  0.00000000E+00  0.00000000E+00  0.00000000E+00
  0.00000000E+00  0.00000000E+00  0.00000000E+00
  0.00000000E+00  0.00000000E+00  0.00000000E+00
  0.00000000E+00  0.00000000E+00  0.00000000E+00
  0.00000000E+00  0.00000000E+00  0.00000000E+00
  0.00000000E+00  0.00000000E+00  0.00000000E+00
  0.00000000E+00  0.00000000E+00  0.00000000E+00
  0.00000000E+00  0.00000000E+00  0.00000000E+00
  0.00000000E+00  0.00000000E+00  0.00000000E+00
  0.00000000E+00  0.00000000E+00  0.00000000E+00
  0.00000000E+00  0.00000000E+00  0.00000000E+00
  0.00000000E+00  0.00000000E+00  0.00000000E+00
  0.00000000E+00  0.00000000E+00  0.00000000E+00
  0.00000000E+00  0.00000000E+00  0.00000000E+00
  0.00000000E+00  0.00000000E+00  0.00000000E+00
  0.00000000E+00  0.00000000E+00  0.00000000E+00
  0.00000000E+00  0.00000000E+00  0.00000000E+00
  0.00000000E+00  0.00000000E+00  0.00000000E+00
  0.00000000E+00  0.00000000E+00  0.00000000E+00
  0.00000000E+00  0.00000000E+00  0.00000000E+00
  0.00000000E+00  0.00000000E+00  0.00000000E+00
