Automatic mesh
0
Auto           ! fully automatic
20
