SCEL6_1_3_2_1_0_0/2                     
   1.00000000000000     
    -3.8995398934730510    0.0000000000000000    0.0000000000000000
     0.0000000000000000    3.9001436761769108    7.7857229534268582
     0.0000000000000000    7.8043246236864769   -7.7877471195611383
   La   Mn   Ni   O 
     6     4     2    18
Direct
  0.0000000000000000  0.6563293338792562  0.1717844373900306
  0.0000000000000000  0.3436706661207438  0.3282155626099694
  0.0000000000000000  0.9916412530656871  0.4957410067080303
  0.0000000000000000  0.6644008711787066  0.6592273540456191
  0.0000000000000000  0.3355991288212934  0.8407726459543809
  0.0000000000000000  0.0083587469343129  0.0042589932919697
  0.5000000000000000  0.0000000000000000  0.7500000000000000
  0.5000000000000000  0.6673236773590645  0.9169097440476008
  0.5000000000000000  0.3326763226409355  0.5830902559523992
  0.5000000000000000  0.0000000000000000  0.2500000000000000
  0.5000000000000000  0.6677556177506005  0.4175218052995007
  0.5000000000000000  0.3322443822493995  0.0824781947004993
  0.5000000000000000  0.5017082163170699  0.9965486937440531
  0.5000000000000000  0.8315979084193046  0.8340488025792254
  0.5000000000000000  0.1684020915806954  0.6659511974207746
  0.5000000000000000  0.4982917836829301  0.5034513062559469
  0.5000000000000000  0.8391592552675746  0.3329044714405924
  0.5000000000000000  0.1608407447324254  0.1670955285594076
  0.5000000000000000  0.5000000000000000  0.7500000000000000
  0.5000000000000000  0.8373770387199713  0.5875514294863606
  0.5000000000000000  0.1660303317999166  0.4173812693536192
  0.5000000000000000  0.5000000000000000  0.2500000000000000
  0.5000000000000000  0.8339696682000834  0.0826187306463808
  0.5000000000000000  0.1626229612800287  0.9124485705136394
  0.0000000000000000  0.6657778069705316  0.9157563351820528
  0.0000000000000000  0.0000000000000000  0.7500000000000000
  0.0000000000000000  0.3342221930294684  0.5842436648179472
  0.0000000000000000  0.6689953376182274  0.4187218814974116
  0.0000000000000000  0.0000000000000000  0.2500000000000000
  0.0000000000000000  0.3310046623817726  0.0812781185025884
 
  0.00000000E+00  0.00000000E+00  0.00000000E+00
  0.00000000E+00  0.00000000E+00  0.00000000E+00
  0.00000000E+00  0.00000000E+00  0.00000000E+00
  0.00000000E+00  0.00000000E+00  0.00000000E+00
  0.00000000E+00  0.00000000E+00  0.00000000E+00
  0.00000000E+00  0.00000000E+00  0.00000000E+00
  0.00000000E+00  0.00000000E+00  0.00000000E+00
  0.00000000E+00  0.00000000E+00  0.00000000E+00
  0.00000000E+00  0.00000000E+00  0.00000000E+00
  0.00000000E+00  0.00000000E+00  0.00000000E+00
  0.00000000E+00  0.00000000E+00  0.00000000E+00
  0.00000000E+00  0.00000000E+00  0.00000000E+00
  0.00000000E+00  0.00000000E+00  0.00000000E+00
  0.00000000E+00  0.00000000E+00  0.00000000E+00
  0.00000000E+00  0.00000000E+00  0.00000000E+00
  0.00000000E+00  0.00000000E+00  0.00000000E+00
  0.00000000E+00  0.00000000E+00  0.00000000E+00
  0.00000000E+00  0.00000000E+00  0.00000000E+00
  0.00000000E+00  0.00000000E+00  0.00000000E+00
  0.00000000E+00  0.00000000E+00  0.00000000E+00
  0.00000000E+00  0.00000000E+00  0.00000000E+00
  0.00000000E+00  0.00000000E+00  0.00000000E+00
  0.00000000E+00  0.00000000E+00  0.00000000E+00
  0.00000000E+00  0.00000000E+00  0.00000000E+00
  0.00000000E+00  0.00000000E+00  0.00000000E+00
  0.00000000E+00  0.00000000E+00  0.00000000E+00
  0.00000000E+00  0.00000000E+00  0.00000000E+00
  0.00000000E+00  0.00000000E+00  0.00000000E+00
  0.00000000E+00  0.00000000E+00  0.00000000E+00
  0.00000000E+00  0.00000000E+00  0.00000000E+00
