SCEL6_1_2_3_0_0_0/2                     
   1.00000000000000     
     3.8921883980208931    0.0000000000000000    0.0000000000000000
     0.0000000000000000    7.7984826177025850    0.0000000000000000
     0.0000000000000000    0.0000000000000000   11.6919147519707725
   La   Mn   Ni   O 
     6     4     2    18
Direct
  0.0000000000000000  0.4946428824172457  0.3276594117846017
  0.0000000000000000  0.0053571175827543  0.6723405882153983
  0.0000000000000000  0.4849262451777392  0.0000000000000000
  0.0000000000000000  0.0053571175827543  0.3276594117846017
  0.0000000000000000  0.4946428824172457  0.6723405882153983
  0.0000000000000000  0.0150737548222608  0.0000000000000000
  0.5000000000000000  0.2500000000000000  0.5000000000000000
  0.5000000000000000  0.7500000000000000  0.8342220889627114
  0.5000000000000000  0.7500000000000000  0.1657779110372886
  0.5000000000000000  0.7500000000000000  0.5000000000000000
  0.5000000000000000  0.2500000000000000  0.8325516991059914
  0.5000000000000000  0.2500000000000000  0.1674483008940086
  0.5000000000000000  0.7500000000000000  0.6670932873189770
  0.5000000000000000  0.2500000000000000  0.3370994645221046
  0.5000000000000000  0.7500000000000000  0.0000000000000000
  0.5000000000000000  0.2500000000000000  0.6629005354778954
  0.5000000000000000  0.7500000000000000  0.3329067126810230
  0.5000000000000000  0.2500000000000000  0.0000000000000000
  0.5000000000000000  0.5064388373604132  0.8317701936459017
  0.5000000000000000  0.0012929918498017  0.5000000000000000
  0.5000000000000000  0.5064388373604132  0.1682298063540983
  0.5000000000000000  0.9935611626395868  0.8317701936459017
  0.5000000000000000  0.4987070081501983  0.5000000000000000
  0.5000000000000000  0.9935611626395868  0.1682298063540983
  0.0000000000000000  0.7500000000000000  0.8314003044674223
  0.0000000000000000  0.2500000000000000  0.5000000000000000
  0.0000000000000000  0.7500000000000000  0.1685996955325777
  0.0000000000000000  0.2500000000000000  0.8311411566756064
  0.0000000000000000  0.7500000000000000  0.5000000000000000
  0.0000000000000000  0.2500000000000000  0.1688588433243936
 
  0.00000000E+00  0.00000000E+00  0.00000000E+00
  0.00000000E+00  0.00000000E+00  0.00000000E+00
  0.00000000E+00  0.00000000E+00  0.00000000E+00
  0.00000000E+00  0.00000000E+00  0.00000000E+00
  0.00000000E+00  0.00000000E+00  0.00000000E+00
  0.00000000E+00  0.00000000E+00  0.00000000E+00
  0.00000000E+00  0.00000000E+00  0.00000000E+00
  0.00000000E+00  0.00000000E+00  0.00000000E+00
  0.00000000E+00  0.00000000E+00  0.00000000E+00
  0.00000000E+00  0.00000000E+00  0.00000000E+00
  0.00000000E+00  0.00000000E+00  0.00000000E+00
  0.00000000E+00  0.00000000E+00  0.00000000E+00
  0.00000000E+00  0.00000000E+00  0.00000000E+00
  0.00000000E+00  0.00000000E+00  0.00000000E+00
  0.00000000E+00  0.00000000E+00  0.00000000E+00
  0.00000000E+00  0.00000000E+00  0.00000000E+00
  0.00000000E+00  0.00000000E+00  0.00000000E+00
  0.00000000E+00  0.00000000E+00  0.00000000E+00
  0.00000000E+00  0.00000000E+00  0.00000000E+00
  0.00000000E+00  0.00000000E+00  0.00000000E+00
  0.00000000E+00  0.00000000E+00  0.00000000E+00
  0.00000000E+00  0.00000000E+00  0.00000000E+00
  0.00000000E+00  0.00000000E+00  0.00000000E+00
  0.00000000E+00  0.00000000E+00  0.00000000E+00
  0.00000000E+00  0.00000000E+00  0.00000000E+00
  0.00000000E+00  0.00000000E+00  0.00000000E+00
  0.00000000E+00  0.00000000E+00  0.00000000E+00
  0.00000000E+00  0.00000000E+00  0.00000000E+00
  0.00000000E+00  0.00000000E+00  0.00000000E+00
  0.00000000E+00  0.00000000E+00  0.00000000E+00
