SCEL4_2_1_2_0_0_1/0
1.0
3.94014471 3.94014471 0.00000000
3.94014471 -3.94014471 0.00000000
0.00000000 0.00000000 -7.88028941
   La   Mn   Ni   O
   4   3   1   12
Direct
0.50000000    0.50000000    0.00000000    La
0.00000000    0.00000000    0.50000000    La
0.50000000    0.50000000    0.50000000    La
0.00000000    0.00000000    0.00000000    La
1.00000000    0.50000000    -0.25000000    Mn
0.50000000    0.00000000    0.25000000    Mn
1.00000000    0.50000000    0.25000000    Mn
0.50000000    0.00000000    -0.25000000    Ni
1.00000000    0.50000000    0.50000000    O
0.50000000    0.00000000    0.50000000    O
1.00000000    0.50000000    0.00000000    O
0.50000000    0.00000000    0.00000000    O
0.75000000    0.75000000    0.25000000    O
0.25000000    0.25000000    0.25000000    O
0.75000000    0.75000000    -0.25000000    O
0.25000000    0.25000000    -0.25000000    O
0.75000000    0.25000000    0.25000000    O
0.25000000    -0.25000000    0.25000000    O
0.75000000    0.25000000    -0.25000000    O
0.25000000    -0.25000000    -0.25000000    O
