SCEL5_1_1_5_0_0_0/2                     
   1.00000000000000     
     3.8935941223882122    0.0000000000000000    0.0000000000000000
     0.0000000000000000    3.8935941223882122    0.0000000000000000
     0.0000000000000000    0.0000000000000000   19.4676465545768522
   La   Mn   Ni   O 
     5     3     2    15
Direct
  0.0000000000000000  0.0000000000000000  0.1956029207820862
  0.0000000000000000  0.0000000000000000  0.4043970792179152
  0.0000000000000000  0.0000000000000000  0.5912903569488961
  0.0000000000000000  0.0000000000000000  0.7999999999999972
  0.0000000000000000  0.0000000000000000  0.0087096430511053
  0.5000000000000000  0.5000000000000000  0.6993016803169354
  0.5000000000000000  0.5000000000000000  0.9006983196830660
  0.5000000000000000  0.5000000000000000  0.2999999999999972
  0.5000000000000000  0.5000000000000000  0.4996879265805774
  0.5000000000000000  0.5000000000000000  0.1003120734194241
  0.5000000000000000  0.5000000000000000  0.7999999999999972
  0.5000000000000000  0.5000000000000000  0.6034005386191481
  0.5000000000000000  0.5000000000000000  0.3972418800853816
  0.5000000000000000  0.5000000000000000  0.2027581199146198
  0.5000000000000000  0.5000000000000000  0.9965994613808533
  0.5000000000000000  0.0000000000000000  0.8974693541103917
  0.5000000000000000  0.0000000000000000  0.7025306458896097
  0.5000000000000000  0.0000000000000000  0.5011350641864638
  0.5000000000000000  0.0000000000000000  0.2999999999999972
  0.5000000000000000  0.0000000000000000  0.0988649358135376
  0.0000000000000000  0.5000000000000000  0.8974693541103917
  0.0000000000000000  0.5000000000000000  0.7025306458896097
  0.0000000000000000  0.5000000000000000  0.5011350641864638
  0.0000000000000000  0.5000000000000000  0.2999999999999972
  0.0000000000000000  0.5000000000000000  0.0988649358135376
 
  0.00000000E+00  0.00000000E+00  0.00000000E+00
  0.00000000E+00  0.00000000E+00  0.00000000E+00
  0.00000000E+00  0.00000000E+00  0.00000000E+00
  0.00000000E+00  0.00000000E+00  0.00000000E+00
  0.00000000E+00  0.00000000E+00  0.00000000E+00
  0.00000000E+00  0.00000000E+00  0.00000000E+00
  0.00000000E+00  0.00000000E+00  0.00000000E+00
  0.00000000E+00  0.00000000E+00  0.00000000E+00
  0.00000000E+00  0.00000000E+00  0.00000000E+00
  0.00000000E+00  0.00000000E+00  0.00000000E+00
  0.00000000E+00  0.00000000E+00  0.00000000E+00
  0.00000000E+00  0.00000000E+00  0.00000000E+00
  0.00000000E+00  0.00000000E+00  0.00000000E+00
  0.00000000E+00  0.00000000E+00  0.00000000E+00
  0.00000000E+00  0.00000000E+00  0.00000000E+00
  0.00000000E+00  0.00000000E+00  0.00000000E+00
  0.00000000E+00  0.00000000E+00  0.00000000E+00
  0.00000000E+00  0.00000000E+00  0.00000000E+00
  0.00000000E+00  0.00000000E+00  0.00000000E+00
  0.00000000E+00  0.00000000E+00  0.00000000E+00
  0.00000000E+00  0.00000000E+00  0.00000000E+00
  0.00000000E+00  0.00000000E+00  0.00000000E+00
  0.00000000E+00  0.00000000E+00  0.00000000E+00
  0.00000000E+00  0.00000000E+00  0.00000000E+00
  0.00000000E+00  0.00000000E+00  0.00000000E+00
