SCEL5_5_1_1_0_3_1/0                     
   1.00000000000000     
    -3.9094780536783733   -3.9094780536783733    0.0000000000000000
    -3.9116620996814571    3.9116620996814571    3.9189712278058795
     0.0002090535251060    3.9092690001532673   -7.8353398340258051
   La   Mn   Ni   O 
     5     4     1    15
Direct
  0.8027004857133662  0.1981595382285164  0.6054009714267394
  0.5972130418561292  0.3951633079426529  0.1944260837122656
  0.3999999999999986  0.6000000000000014  0.7999999999999972
  0.2027869581438750  0.8048366920573429  0.4055739162877359
  0.9972995142866310  0.0018404617714864  0.9945990285732620
  0.7997752249780206  0.7007788574993938  0.5995504499560553
  0.5993738190413822  0.9000250906557312  0.1987476380827644
  0.0002247750219766  0.4992211425006090  0.0004495500439461
  0.2006261809586221  0.2999749093442645  0.4012523619172370
  0.3999999999999986  0.1000000000000014  0.7999999999999972
  0.6979261155435523  0.8021488819534781  0.3958522310871118
  0.8999999999999986  0.6000000000000014  0.7999999999999972
  0.1020738844564519  0.3978511180465176  0.2041477689128897
  0.2990046628539673  0.2009873206392570  0.5980093257079346
  0.5009953371460298  0.9990126793607459  0.0019906742920668
  0.8026142134504042  0.6960555904099053  0.0983211303822458
  0.9973857865495930  0.5039444095900976  0.5016788696177557
  0.1976717426002779  0.3022032363651590  0.9015639256332122
  0.3999999999999986  0.1000000000000014  0.2999999999999972
  0.6023282573997264  0.8977967636348367  0.6984360743667892
  0.8999999999999986  0.1000000000000014  0.2999999999999972
  0.0961078169670699  0.8977967636348367  0.6984360743667892
  0.2957069169318345  0.6960555904099053  0.0983211303822458
  0.5042930830681627  0.5039444095900976  0.5016788696177557
  0.7038921830329343  0.3022032363651590  0.9015639256332122
 
  0.00000000E+00  0.00000000E+00  0.00000000E+00
  0.00000000E+00  0.00000000E+00  0.00000000E+00
  0.00000000E+00  0.00000000E+00  0.00000000E+00
  0.00000000E+00  0.00000000E+00  0.00000000E+00
  0.00000000E+00  0.00000000E+00  0.00000000E+00
  0.00000000E+00  0.00000000E+00  0.00000000E+00
  0.00000000E+00  0.00000000E+00  0.00000000E+00
  0.00000000E+00  0.00000000E+00  0.00000000E+00
  0.00000000E+00  0.00000000E+00  0.00000000E+00
  0.00000000E+00  0.00000000E+00  0.00000000E+00
  0.00000000E+00  0.00000000E+00  0.00000000E+00
  0.00000000E+00  0.00000000E+00  0.00000000E+00
  0.00000000E+00  0.00000000E+00  0.00000000E+00
  0.00000000E+00  0.00000000E+00  0.00000000E+00
  0.00000000E+00  0.00000000E+00  0.00000000E+00
  0.00000000E+00  0.00000000E+00  0.00000000E+00
  0.00000000E+00  0.00000000E+00  0.00000000E+00
  0.00000000E+00  0.00000000E+00  0.00000000E+00
  0.00000000E+00  0.00000000E+00  0.00000000E+00
  0.00000000E+00  0.00000000E+00  0.00000000E+00
  0.00000000E+00  0.00000000E+00  0.00000000E+00
  0.00000000E+00  0.00000000E+00  0.00000000E+00
  0.00000000E+00  0.00000000E+00  0.00000000E+00
  0.00000000E+00  0.00000000E+00  0.00000000E+00
  0.00000000E+00  0.00000000E+00  0.00000000E+00
