SCEL1_1_1_1_0_0_0/1
1.0
3.94014471 0.00000000 0.00000000
0.00000000 3.94014471 0.00000000
0.00000000 0.00000000 3.94014471
   La   Ni   O
   1   1   3
Direct
0.00000000    0.00000000    0.00000000    La
0.50000000    0.50000000    0.50000000    Ni
0.00000000    0.50000000    0.50000000    O
0.50000000    0.00000000    0.50000000    O
0.50000000    0.50000000    0.00000000    O
