SCEL6_1_3_2_1_0_0/1                     
   1.00000000000000     
    -3.9113942390068428    0.0000000000000000    0.0000000000000000
     0.0000000000000000    3.8891560704790580    7.8467589235924278
     0.0000000000000000    7.7736187292873655   -7.8444315791786803
   La   Mn   Ni   O 
     6     4     2    18
Direct
  0.0000000000000000  0.6666667000000004  0.1666667000000004
  0.0000000000000000  0.3214776946385030  0.3202820696809994
  0.0000000000000000  0.0016779657791517  0.4905346640695711
  0.0000000000000000  0.6666667000000004  0.6666667000000004
  0.0000000000000000  0.3316553342208479  0.8427986359304285
  0.0000000000000000  0.0118556053614967  0.0130512303190002
  0.5000000000000000  0.0001281953423771  0.7500277909661079
  0.5000000000000000  0.6676821926594698  0.9169527195750433
  0.5000000000000000  0.3332051046576225  0.5833055090338917
  0.5000000000000000  0.6656512073405310  0.4163806804249575
  0.5000000000000000  0.9983252228046808  0.2501599334428803
  0.5000000000000000  0.3350080771953188  0.0831733665571193
  0.5000000000000000  0.5026468188375262  0.9972651561082415
  0.5000000000000000  0.8284830112783226  0.8318560564277675
  0.5000000000000000  0.1666667000000004  0.6666667000000004
  0.5000000000000000  0.5048502887216770  0.5014772435722321
  0.5000000000000000  0.8306864811624735  0.3360681438917581
  0.5000000000000000  0.1666667000000004  0.1666667000000004
  0.5000000000000000  0.5012297602476892  0.7495467012725641
  0.5000000000000000  0.8321035397523104  0.5837865987274355
  0.5000000000000000  0.1696978998116379  0.4215976309718741
  0.5000000000000000  0.5052403948987489  0.2542531128216012
  0.5000000000000000  0.8280929051012507  0.0790801871783984
  0.5000000000000000  0.1636355001883629  0.9117357690281267
  0.0000000000000000  0.6643902623501958  0.9146757284499856
  0.0000000000000000  0.9984609289131043  0.7487902205411103
  0.0000000000000000  0.3348723710868953  0.5845430794588893
  0.0000000000000000  0.6689431376498050  0.4186576715500152
  0.0000000000000000  0.9992870251456623  0.2515774428842690
  0.0000000000000000  0.3340462748543374  0.0817558571157377
 
  0.00000000E+00  0.00000000E+00  0.00000000E+00
  0.00000000E+00  0.00000000E+00  0.00000000E+00
  0.00000000E+00  0.00000000E+00  0.00000000E+00
  0.00000000E+00  0.00000000E+00  0.00000000E+00
  0.00000000E+00  0.00000000E+00  0.00000000E+00
  0.00000000E+00  0.00000000E+00  0.00000000E+00
  0.00000000E+00  0.00000000E+00  0.00000000E+00
  0.00000000E+00  0.00000000E+00  0.00000000E+00
  0.00000000E+00  0.00000000E+00  0.00000000E+00
  0.00000000E+00  0.00000000E+00  0.00000000E+00
  0.00000000E+00  0.00000000E+00  0.00000000E+00
  0.00000000E+00  0.00000000E+00  0.00000000E+00
  0.00000000E+00  0.00000000E+00  0.00000000E+00
  0.00000000E+00  0.00000000E+00  0.00000000E+00
  0.00000000E+00  0.00000000E+00  0.00000000E+00
  0.00000000E+00  0.00000000E+00  0.00000000E+00
  0.00000000E+00  0.00000000E+00  0.00000000E+00
  0.00000000E+00  0.00000000E+00  0.00000000E+00
  0.00000000E+00  0.00000000E+00  0.00000000E+00
  0.00000000E+00  0.00000000E+00  0.00000000E+00
  0.00000000E+00  0.00000000E+00  0.00000000E+00
  0.00000000E+00  0.00000000E+00  0.00000000E+00
  0.00000000E+00  0.00000000E+00  0.00000000E+00
  0.00000000E+00  0.00000000E+00  0.00000000E+00
  0.00000000E+00  0.00000000E+00  0.00000000E+00
  0.00000000E+00  0.00000000E+00  0.00000000E+00
  0.00000000E+00  0.00000000E+00  0.00000000E+00
  0.00000000E+00  0.00000000E+00  0.00000000E+00
  0.00000000E+00  0.00000000E+00  0.00000000E+00
  0.00000000E+00  0.00000000E+00  0.00000000E+00
