SCEL6_3_2_1_0_1_0/4                     
   1.00000000000000     
     3.8758640029251059    0.0000000000000000    3.8758640030306117
     0.0000000000000000   -7.7743892274180499    0.0000000000000000
     3.8797074610493811    0.0000000000000000   -7.7555714543485434
   La   Mn   Ni   O 
     6     3     3    18
Direct
  0.3393771181047924  0.4921635463902518  0.6787543362097139
  0.6640377618249929  0.0024691932016339  0.3280754236499206
  0.9965702390610502  0.4941071310658884  0.9931404781220152
  0.3393771181047924  0.0078364536097482  0.6787543362097139
  0.6640377618249929  0.4975308067983661  0.3280754236499206
  0.9965702390610502  0.0058928689341116  0.9931404781220152
  0.8331418133246729  0.7500000000000000  0.6662837266494677
  0.1671775360870029  0.2500000000000000  0.3343549721739834
  0.1663599543884473  0.7500000000000000  0.3327198087767940
  0.5006153497154955  0.2500000000000000  0.0012306994309412
  0.8321061308843056  0.2500000000000000  0.6642123617686693
  0.5005443462273718  0.7500000000000000  0.0010886924547506
  0.0024217664668456  0.2500000000000000  0.4963769539361351
  0.6704289198231379  0.7500000000000000  0.8286128793960188
  0.3304663970187107  0.2500000000000000  0.1715190604365304
  0.9989113962065588  0.7500000000000000  0.4986491578370078
  0.6671220009801360  0.2500000000000000  0.8321721463000671
  0.3307443895672932  0.7500000000000000  0.1725016198350318
  0.1669206175226989  0.5001654655321772  0.3338411350454038
  0.8325864721827827  0.9937559189576390  0.6651730443655453
  0.5006193171196500  0.5021663646149790  0.0012386342393071
  0.1669206175226989  0.9998345344678228  0.3338411350454038
  0.8325864721827827  0.5062440810423610  0.6651730443655453
  0.5006193171196500  0.9978336353850210  0.0012386342393071
  0.8410525634176977  0.2500000000000000  0.1715190604364807
  0.4997377616304632  0.7500000000000000  0.4986491578370078
  0.1650502453199465  0.2500000000000000  0.8321721463000671
  0.8417571302676095  0.7500000000000000  0.1725016198349820
  0.4939551874693962  0.2500000000000000  0.4963769539361778
  0.1581840595729957  0.7500000000000000  0.8286128793960756
 
  0.00000000E+00  0.00000000E+00  0.00000000E+00
  0.00000000E+00  0.00000000E+00  0.00000000E+00
  0.00000000E+00  0.00000000E+00  0.00000000E+00
  0.00000000E+00  0.00000000E+00  0.00000000E+00
  0.00000000E+00  0.00000000E+00  0.00000000E+00
  0.00000000E+00  0.00000000E+00  0.00000000E+00
  0.00000000E+00  0.00000000E+00  0.00000000E+00
  0.00000000E+00  0.00000000E+00  0.00000000E+00
  0.00000000E+00  0.00000000E+00  0.00000000E+00
  0.00000000E+00  0.00000000E+00  0.00000000E+00
  0.00000000E+00  0.00000000E+00  0.00000000E+00
  0.00000000E+00  0.00000000E+00  0.00000000E+00
  0.00000000E+00  0.00000000E+00  0.00000000E+00
  0.00000000E+00  0.00000000E+00  0.00000000E+00
  0.00000000E+00  0.00000000E+00  0.00000000E+00
  0.00000000E+00  0.00000000E+00  0.00000000E+00
  0.00000000E+00  0.00000000E+00  0.00000000E+00
  0.00000000E+00  0.00000000E+00  0.00000000E+00
  0.00000000E+00  0.00000000E+00  0.00000000E+00
  0.00000000E+00  0.00000000E+00  0.00000000E+00
  0.00000000E+00  0.00000000E+00  0.00000000E+00
  0.00000000E+00  0.00000000E+00  0.00000000E+00
  0.00000000E+00  0.00000000E+00  0.00000000E+00
  0.00000000E+00  0.00000000E+00  0.00000000E+00
  0.00000000E+00  0.00000000E+00  0.00000000E+00
  0.00000000E+00  0.00000000E+00  0.00000000E+00
  0.00000000E+00  0.00000000E+00  0.00000000E+00
  0.00000000E+00  0.00000000E+00  0.00000000E+00
  0.00000000E+00  0.00000000E+00  0.00000000E+00
  0.00000000E+00  0.00000000E+00  0.00000000E+00
