SCEL6_6_1_1_0_4_1/1                     
   1.00000000000000     
     3.9080126229514489    3.9080126229514489    0.0000000000000000
    -3.9089696288252216    3.9089696288252216    3.8851104433807788
     3.9072652264228096   -3.9072652264228096    7.7668062787069445
   La   Mn   Ni   O 
     6     4     2    18
Direct
  0.5000000000000000  0.3337440677753207  0.8462164249118231
  0.0000000000000000  0.6634444211002801  0.6719470525628921
  0.5000000000000000  0.0032222788997203  0.4947196474371083
  0.0000000000000000  0.3329225322246785  0.3204501750881761
  0.5000000000000000  0.6585541544410205  0.1613894438388499
  0.0000000000000000  0.0081125455589799  0.0052772561611505
  0.5000000000000000  0.4990554795867581  0.4999946642904050
  0.0000000000000000  0.8332248096438875  0.3329316804053306
  0.0000000000000000  0.1676112204132423  0.6666720357095954
  0.5000000000000000  0.8334417903561118  0.8337349195946686
  0.0000000000000000  0.5013082274743184  0.9992944790452398
  0.5000000000000000  0.1653584725256820  0.1673722209547606
  0.0000000000000000  0.6705847297919334  0.1703712194317788
  0.5000000000000000  0.3353578591181119  0.3374170407064199
  0.0000000000000000  0.9987565221370716  0.5004315267245119
  0.5000000000000000  0.6679101778629288  0.6662351732754885
  0.0000000000000000  0.3313087408818873  0.8292495592935794
  0.5000000000000000  0.9960819702080670  0.9962954805682216
  0.7532085737241374  0.6703245174788108  0.4164938924641604
  0.2500000000000000  0.3333332999999996  0.5833332999999996
  0.7467914262758626  0.9963421825211896  0.7501728075358400
  0.2537263103443834  0.6687610363428433  0.9139560110859861
  0.7500000000000000  0.3333332999999996  0.0833332999999996
  0.2462736896556166  0.9979056636571570  0.2527106889140072
  0.7537263103443834  0.9979056636571570  0.2527106889140072
  0.2467914262758626  0.6703245174788108  0.4164938924641604
  0.7500000000000000  0.3333332999999996  0.5833332999999996
  0.2532085737241374  0.9963421825211896  0.7501728075358400
  0.7462736896556166  0.6687610363428433  0.9139560110859861
  0.2500000000000000  0.3333332999999996  0.0833332999999996
 
  0.00000000E+00  0.00000000E+00  0.00000000E+00
  0.00000000E+00  0.00000000E+00  0.00000000E+00
  0.00000000E+00  0.00000000E+00  0.00000000E+00
  0.00000000E+00  0.00000000E+00  0.00000000E+00
  0.00000000E+00  0.00000000E+00  0.00000000E+00
  0.00000000E+00  0.00000000E+00  0.00000000E+00
  0.00000000E+00  0.00000000E+00  0.00000000E+00
  0.00000000E+00  0.00000000E+00  0.00000000E+00
  0.00000000E+00  0.00000000E+00  0.00000000E+00
  0.00000000E+00  0.00000000E+00  0.00000000E+00
  0.00000000E+00  0.00000000E+00  0.00000000E+00
  0.00000000E+00  0.00000000E+00  0.00000000E+00
  0.00000000E+00  0.00000000E+00  0.00000000E+00
  0.00000000E+00  0.00000000E+00  0.00000000E+00
  0.00000000E+00  0.00000000E+00  0.00000000E+00
  0.00000000E+00  0.00000000E+00  0.00000000E+00
  0.00000000E+00  0.00000000E+00  0.00000000E+00
  0.00000000E+00  0.00000000E+00  0.00000000E+00
  0.00000000E+00  0.00000000E+00  0.00000000E+00
  0.00000000E+00  0.00000000E+00  0.00000000E+00
  0.00000000E+00  0.00000000E+00  0.00000000E+00
  0.00000000E+00  0.00000000E+00  0.00000000E+00
  0.00000000E+00  0.00000000E+00  0.00000000E+00
  0.00000000E+00  0.00000000E+00  0.00000000E+00
  0.00000000E+00  0.00000000E+00  0.00000000E+00
  0.00000000E+00  0.00000000E+00  0.00000000E+00
  0.00000000E+00  0.00000000E+00  0.00000000E+00
  0.00000000E+00  0.00000000E+00  0.00000000E+00
  0.00000000E+00  0.00000000E+00  0.00000000E+00
  0.00000000E+00  0.00000000E+00  0.00000000E+00
