SCEL6_1_1_6_0_0_0/5                     
   1.00000000000000     
     3.8645435695262695    0.0000000000000000    0.0000000000000000
     0.0000000000000000    3.8645435695262695    0.0000000000000000
     0.0000000000000000    0.0000000000000000   23.3863431075140191
   La   Mn   Ni   O 
     6     2     4    18
Direct
  0.0000000000000000  0.0000000000000000  0.1723228562119488
  0.0000000000000000  0.0000000000000000  0.3333332999999996
  0.0000000000000000  0.0000000000000000  0.4943438437880516
  0.0000000000000000  0.0000000000000000  0.6563719278265978
  0.0000000000000000  0.0000000000000000  0.8333332999999996
  0.0000000000000000  0.0000000000000000  0.0102947721734026
  0.5000000000000000  0.5000000000000000  0.7492152181567135
  0.5000000000000000  0.5000000000000000  0.9174514818432868
  0.5000000000000000  0.5000000000000000  0.4159133731303442
  0.5000000000000000  0.5000000000000000  0.5815904743726819
  0.5000000000000000  0.5000000000000000  0.2507533268696562
  0.5000000000000000  0.5000000000000000  0.0850761256273174
  0.5000000000000000  0.5000000000000000  0.8333332999999996
  0.5000000000000000  0.5000000000000000  0.6690592744565151
  0.5000000000000000  0.5000000000000000  0.4984346327053117
  0.5000000000000000  0.5000000000000000  0.3333332999999996
  0.5000000000000000  0.5000000000000000  0.1682320672946886
  0.5000000000000000  0.5000000000000000  0.9976074255434852
  0.5000000000000000  0.0000000000000000  0.9134953256824545
  0.5000000000000000  0.0000000000000000  0.7531713743175459
  0.5000000000000000  0.0000000000000000  0.5852421771411827
  0.5000000000000000  0.0000000000000000  0.4168072540159713
  0.5000000000000000  0.0000000000000000  0.2498594459840291
  0.5000000000000000  0.0000000000000000  0.0814244228588166
  0.0000000000000000  0.5000000000000000  0.9134953256824545
  0.0000000000000000  0.5000000000000000  0.7531713743175459
  0.0000000000000000  0.5000000000000000  0.5852421771411827
  0.0000000000000000  0.5000000000000000  0.4168072540159713
  0.0000000000000000  0.5000000000000000  0.2498594459840291
  0.0000000000000000  0.5000000000000000  0.0814244228588166
 
  0.00000000E+00  0.00000000E+00  0.00000000E+00
  0.00000000E+00  0.00000000E+00  0.00000000E+00
  0.00000000E+00  0.00000000E+00  0.00000000E+00
  0.00000000E+00  0.00000000E+00  0.00000000E+00
  0.00000000E+00  0.00000000E+00  0.00000000E+00
  0.00000000E+00  0.00000000E+00  0.00000000E+00
  0.00000000E+00  0.00000000E+00  0.00000000E+00
  0.00000000E+00  0.00000000E+00  0.00000000E+00
  0.00000000E+00  0.00000000E+00  0.00000000E+00
  0.00000000E+00  0.00000000E+00  0.00000000E+00
  0.00000000E+00  0.00000000E+00  0.00000000E+00
  0.00000000E+00  0.00000000E+00  0.00000000E+00
  0.00000000E+00  0.00000000E+00  0.00000000E+00
  0.00000000E+00  0.00000000E+00  0.00000000E+00
  0.00000000E+00  0.00000000E+00  0.00000000E+00
  0.00000000E+00  0.00000000E+00  0.00000000E+00
  0.00000000E+00  0.00000000E+00  0.00000000E+00
  0.00000000E+00  0.00000000E+00  0.00000000E+00
  0.00000000E+00  0.00000000E+00  0.00000000E+00
  0.00000000E+00  0.00000000E+00  0.00000000E+00
  0.00000000E+00  0.00000000E+00  0.00000000E+00
  0.00000000E+00  0.00000000E+00  0.00000000E+00
  0.00000000E+00  0.00000000E+00  0.00000000E+00
  0.00000000E+00  0.00000000E+00  0.00000000E+00
  0.00000000E+00  0.00000000E+00  0.00000000E+00
  0.00000000E+00  0.00000000E+00  0.00000000E+00
  0.00000000E+00  0.00000000E+00  0.00000000E+00
  0.00000000E+00  0.00000000E+00  0.00000000E+00
  0.00000000E+00  0.00000000E+00  0.00000000E+00
  0.00000000E+00  0.00000000E+00  0.00000000E+00
