SCEL6_6_1_1_0_4_1/0                     
   1.00000000000000     
     3.9156042489205625    3.9156042489205625    0.0000000000000000
    -3.9136432833363664    3.9136432833363664    3.9246505686324364
     3.9130863002415039   -3.9130863002415039    7.8481827285518664
   La   Mn   Ni   O 
     6     5     1    18
Direct
  0.5000000000000000  0.3287113249052069  0.8391322955994411
  0.0000000000000000  0.6666667000000004  0.6666667000000004
  0.5000000000000000  0.0046219750947927  0.4942010044005585
  0.0000000000000000  0.3286548121202273  0.3279619700180163
  0.5000000000000000  0.6666667000000004  0.1666667000000004
  0.0000000000000000  0.0046784878797723  0.0053713299819833
  0.5000000000000000  0.5001482609911037  0.5000233732625645
  0.0000000000000000  0.8337058365735999  0.3333444007473432
  0.0000000000000000  0.1666667000000004  0.6666667000000004
  0.5000000000000000  0.8331850390088960  0.8333099267374351
  0.0000000000000000  0.4996274634263997  0.9999888992526564
  0.5000000000000000  0.1666667000000004  0.1666667000000004
  0.0000000000000000  0.6666667000000004  0.1666667000000004
  0.5000000000000000  0.3335305614529673  0.3343186115200680
  0.0000000000000000  0.0008991256612987  0.5008758036894818
  0.5000000000000000  0.6666667000000004  0.6666667000000004
  0.0000000000000000  0.3324341743387009  0.8324574963105178
  0.5000000000000000  0.9998027385470323  0.9990146884799316
  0.7532750763407208  0.6702285109818362  0.4159759830853389
  0.2480747135165657  0.3326001454881649  0.5842793519702738
  0.7519252864834343  0.0007331545118348  0.7490539480297258
  0.2467249236592792  0.6631048890181646  0.9173574169146619
  0.7533477839115079  0.3347923665823984  0.0819781575167866
  0.2466522160884921  0.9985409334176012  0.2513551424832130
  0.7533477839115079  0.9985409334176012  0.2513551424832130
  0.2467249236592792  0.6702285109818362  0.4159759830853389
  0.7519252864834343  0.3326001454881649  0.5842793519702738
  0.2480747135165657  0.0007331545118348  0.7490539480297258
  0.7532750763407208  0.6631048890181646  0.9173574169146619
  0.2466522160884921  0.3347923665823984  0.0819781575167866
 
  0.00000000E+00  0.00000000E+00  0.00000000E+00
  0.00000000E+00  0.00000000E+00  0.00000000E+00
  0.00000000E+00  0.00000000E+00  0.00000000E+00
  0.00000000E+00  0.00000000E+00  0.00000000E+00
  0.00000000E+00  0.00000000E+00  0.00000000E+00
  0.00000000E+00  0.00000000E+00  0.00000000E+00
  0.00000000E+00  0.00000000E+00  0.00000000E+00
  0.00000000E+00  0.00000000E+00  0.00000000E+00
  0.00000000E+00  0.00000000E+00  0.00000000E+00
  0.00000000E+00  0.00000000E+00  0.00000000E+00
  0.00000000E+00  0.00000000E+00  0.00000000E+00
  0.00000000E+00  0.00000000E+00  0.00000000E+00
  0.00000000E+00  0.00000000E+00  0.00000000E+00
  0.00000000E+00  0.00000000E+00  0.00000000E+00
  0.00000000E+00  0.00000000E+00  0.00000000E+00
  0.00000000E+00  0.00000000E+00  0.00000000E+00
  0.00000000E+00  0.00000000E+00  0.00000000E+00
  0.00000000E+00  0.00000000E+00  0.00000000E+00
  0.00000000E+00  0.00000000E+00  0.00000000E+00
  0.00000000E+00  0.00000000E+00  0.00000000E+00
  0.00000000E+00  0.00000000E+00  0.00000000E+00
  0.00000000E+00  0.00000000E+00  0.00000000E+00
  0.00000000E+00  0.00000000E+00  0.00000000E+00
  0.00000000E+00  0.00000000E+00  0.00000000E+00
  0.00000000E+00  0.00000000E+00  0.00000000E+00
  0.00000000E+00  0.00000000E+00  0.00000000E+00
  0.00000000E+00  0.00000000E+00  0.00000000E+00
  0.00000000E+00  0.00000000E+00  0.00000000E+00
  0.00000000E+00  0.00000000E+00  0.00000000E+00
  0.00000000E+00  0.00000000E+00  0.00000000E+00
