SCEL5_1_5_1_4_0_0/4                     
   1.00000000000000     
     3.8710200045643970    0.0000000000000000    0.0000000000000000
     0.0000000000000000    3.8697959201217920   -3.8697959201217920
     0.0000000000000000    7.7660282470512350   11.6358241671730269
   La   Mn   Ni   O 
     5     2     3    15
Direct
  0.0000000000000000  0.6037419512772786  0.2074839025545572
  0.0000000000000000  0.1962580487227257  0.3925160974454442
  0.0000000000000000  0.7995703370108203  0.5991406740216405
  0.0000000000000000  0.3999999999999986  0.7999999999999972
  0.0000000000000000  0.0004296629891769  0.0008593259783609
  0.5000000000000000  0.5003355375704217  0.0006710751408505
  0.5000000000000000  0.2996644624295755  0.5993289248591509
  0.5000000000000000  0.8999999999999986  0.7999999999999972
  0.5000000000000000  0.7006837647732738  0.4013675295465404
  0.5000000000000000  0.0993162352267305  0.1986324704534610
  0.5000000000000000  0.6955892818786680  0.9021986697582633
  0.5000000000000000  0.1044107181213363  0.6978013302417381
  0.5000000000000000  0.4991495783591375  0.5025165927057174
  0.5000000000000000  0.8999999999999986  0.2999999999999972
  0.5000000000000000  0.3008504216408596  0.0974834072942841
  0.5000000000000000  0.2066093878796025  0.9021986697582633
  0.5000000000000000  0.5933906121204018  0.6978013302417381
  0.5000000000000000  0.0033670143465869  0.5025165927057174
  0.5000000000000000  0.3999999999999986  0.2999999999999972
  0.5000000000000000  0.7966329856534102  0.0974834072942841
  0.0000000000000000  0.4996181070505585  0.9992362141011242
  0.0000000000000000  0.8999999999999986  0.7999999999999972
  0.0000000000000000  0.3003818929494386  0.6007637858988772
  0.0000000000000000  0.6996763167647089  0.3993526335294106
  0.0000000000000000  0.1003236832352954  0.2006473664705908
 
  0.00000000E+00  0.00000000E+00  0.00000000E+00
  0.00000000E+00  0.00000000E+00  0.00000000E+00
  0.00000000E+00  0.00000000E+00  0.00000000E+00
  0.00000000E+00  0.00000000E+00  0.00000000E+00
  0.00000000E+00  0.00000000E+00  0.00000000E+00
  0.00000000E+00  0.00000000E+00  0.00000000E+00
  0.00000000E+00  0.00000000E+00  0.00000000E+00
  0.00000000E+00  0.00000000E+00  0.00000000E+00
  0.00000000E+00  0.00000000E+00  0.00000000E+00
  0.00000000E+00  0.00000000E+00  0.00000000E+00
  0.00000000E+00  0.00000000E+00  0.00000000E+00
  0.00000000E+00  0.00000000E+00  0.00000000E+00
  0.00000000E+00  0.00000000E+00  0.00000000E+00
  0.00000000E+00  0.00000000E+00  0.00000000E+00
  0.00000000E+00  0.00000000E+00  0.00000000E+00
  0.00000000E+00  0.00000000E+00  0.00000000E+00
  0.00000000E+00  0.00000000E+00  0.00000000E+00
  0.00000000E+00  0.00000000E+00  0.00000000E+00
  0.00000000E+00  0.00000000E+00  0.00000000E+00
  0.00000000E+00  0.00000000E+00  0.00000000E+00
  0.00000000E+00  0.00000000E+00  0.00000000E+00
  0.00000000E+00  0.00000000E+00  0.00000000E+00
  0.00000000E+00  0.00000000E+00  0.00000000E+00
  0.00000000E+00  0.00000000E+00  0.00000000E+00
  0.00000000E+00  0.00000000E+00  0.00000000E+00
