SCEL6_6_1_1_0_5_5/2                     
   1.00000000000000     
     3.9023384100028498    0.0000000000000000   -3.9023384100028498
    -3.9023384100028498    3.9023384100028498    0.0000000000000000
     7.8053074405797132    7.8053074405797132    7.8053074405797132
   La   Mn   Ni   O 
     6     4     2    18
Direct
  0.6666667000000004  0.3333332999999996  0.8373680332509323
  0.3333332999999996  0.6666667000000004  0.6709288533595128
  0.0000000000000000  0.0000000000000000  0.4957378466404805
  0.6666667000000004  0.3333332999999996  0.3292985667490669
  0.3333332999999996  0.6666667000000004  0.1664040022341311
  0.0000000000000000  0.0000000000000000  0.0002626977658693
  0.6666667000000004  0.3333332999999996  0.5833332999999996
  0.3333332999999996  0.6666667000000004  0.4158251472742833
  0.0000000000000000  0.0000000000000000  0.7508415527257171
  0.6666667000000004  0.3333332999999996  0.0833332999999996
  0.3333332999999996  0.6666667000000004  0.9171032530224110
  0.0000000000000000  0.0000000000000000  0.2495634469775894
  0.6641875748055384  0.8320937374027650  0.3344674419457903
  0.0065505938160086  0.5032752969080008  0.4986135478144504
  0.3267827061839910  0.1633914030919925  0.6680531521855499
  0.6691458251944624  0.8345728625972342  0.8321991580542161
  0.9927181904767366  0.4963590952383683  0.0018540150005322
  0.3406151095232630  0.1703076047616321  0.1648126849994682
  0.1679062625972350  0.3358124251944616  0.3344674419457903
  0.4967247030919921  0.9934494061839914  0.4986135478144504
  0.8366085969080004  0.6732172938160090  0.6680531521855499
  0.1654271374027658  0.3308541748055376  0.8321991580542161
  0.5036409047616317  0.0072818095232634  0.0018540150005322
  0.8296923952383679  0.6593848904767370  0.1648126849994682
  0.1679062625972350  0.8320937374027650  0.3344674419457903
  0.4967247030919921  0.5032752969080008  0.4986135478144504
  0.8366085969080004  0.1633914030919925  0.6680531521855499
  0.1654271374027658  0.8345728625972342  0.8321991580542161
  0.5036409047616317  0.4963590952383683  0.0018540150005322
  0.8296923952383679  0.1703076047616321  0.1648126849994682
 
  0.00000000E+00  0.00000000E+00  0.00000000E+00
  0.00000000E+00  0.00000000E+00  0.00000000E+00
  0.00000000E+00  0.00000000E+00  0.00000000E+00
  0.00000000E+00  0.00000000E+00  0.00000000E+00
  0.00000000E+00  0.00000000E+00  0.00000000E+00
  0.00000000E+00  0.00000000E+00  0.00000000E+00
  0.00000000E+00  0.00000000E+00  0.00000000E+00
  0.00000000E+00  0.00000000E+00  0.00000000E+00
  0.00000000E+00  0.00000000E+00  0.00000000E+00
  0.00000000E+00  0.00000000E+00  0.00000000E+00
  0.00000000E+00  0.00000000E+00  0.00000000E+00
  0.00000000E+00  0.00000000E+00  0.00000000E+00
  0.00000000E+00  0.00000000E+00  0.00000000E+00
  0.00000000E+00  0.00000000E+00  0.00000000E+00
  0.00000000E+00  0.00000000E+00  0.00000000E+00
  0.00000000E+00  0.00000000E+00  0.00000000E+00
  0.00000000E+00  0.00000000E+00  0.00000000E+00
  0.00000000E+00  0.00000000E+00  0.00000000E+00
  0.00000000E+00  0.00000000E+00  0.00000000E+00
  0.00000000E+00  0.00000000E+00  0.00000000E+00
  0.00000000E+00  0.00000000E+00  0.00000000E+00
  0.00000000E+00  0.00000000E+00  0.00000000E+00
  0.00000000E+00  0.00000000E+00  0.00000000E+00
  0.00000000E+00  0.00000000E+00  0.00000000E+00
  0.00000000E+00  0.00000000E+00  0.00000000E+00
  0.00000000E+00  0.00000000E+00  0.00000000E+00
  0.00000000E+00  0.00000000E+00  0.00000000E+00
  0.00000000E+00  0.00000000E+00  0.00000000E+00
  0.00000000E+00  0.00000000E+00  0.00000000E+00
  0.00000000E+00  0.00000000E+00  0.00000000E+00
