SCEL5_5_1_1_0_1_1/2                     
   1.00000000000000     
     3.8903218855403470    0.0000000000235031    3.8903218855873529
     3.8903218855403470    3.8903218855873529    0.0000000000235031
    -3.8980158033127292    7.7883376791204100    7.7883376791204100
   La   Mn   Ni   O 
     5     3     2    15
Direct
  0.8026221590790428  0.8026221590790428  0.5921335227628362
  0.6000000000000014  0.6000000000000014  0.2000000000000028
  0.3973778409209530  0.3973778409209530  0.8078664772371624
  0.2063539113979971  0.2063539113979971  0.3809382658059306
  0.9936460886020058  0.9936460886020058  0.0190617341940680
  0.7002506358539407  0.7002506358539407  0.8992480924382207
  0.4997493641460622  0.4997493641460622  0.5007519075617779
  0.1000000000000014  0.1000000000000014  0.7000000000000028
  0.8994601841323089  0.8994601841323089  0.3016194476030520
  0.3005398158676869  0.3005398158676869  0.0983805523969465
  0.2028479073850704  0.6967719004034265  0.4036082918081121
  0.4033922126158203  0.8986920120445774  0.7992237632950179
  0.6000000000000014  0.1000000000000014  0.2000000000000028
  0.7966077873841755  0.3013079879554112  0.6007762367049807
  0.9971520926149324  0.5032280995965763  0.9963917081918865
  0.6967719004034265  0.2028479073850704  0.4036082918081121
  0.8986920120445774  0.4033922126158203  0.7992237632950179
  0.1000000000000014  0.6000000000000014  0.2000000000000028
  0.3013079879554112  0.7966077873841755  0.6007762367049807
  0.5032280995965763  0.9971520926149324  0.9963917081918865
  0.3013079879554112  0.3013079879554112  0.6007762367049878
  0.5032280995965763  0.5032280995965763  0.9963917081918936
  0.6967719004034265  0.6967719004034265  0.4036082918081050
  0.8986920120445845  0.8986920120445845  0.7992237632950108
  0.1000000000000014  0.1000000000000014  0.2000000000000028
 
  0.00000000E+00  0.00000000E+00  0.00000000E+00
  0.00000000E+00  0.00000000E+00  0.00000000E+00
  0.00000000E+00  0.00000000E+00  0.00000000E+00
  0.00000000E+00  0.00000000E+00  0.00000000E+00
  0.00000000E+00  0.00000000E+00  0.00000000E+00
  0.00000000E+00  0.00000000E+00  0.00000000E+00
  0.00000000E+00  0.00000000E+00  0.00000000E+00
  0.00000000E+00  0.00000000E+00  0.00000000E+00
  0.00000000E+00  0.00000000E+00  0.00000000E+00
  0.00000000E+00  0.00000000E+00  0.00000000E+00
  0.00000000E+00  0.00000000E+00  0.00000000E+00
  0.00000000E+00  0.00000000E+00  0.00000000E+00
  0.00000000E+00  0.00000000E+00  0.00000000E+00
  0.00000000E+00  0.00000000E+00  0.00000000E+00
  0.00000000E+00  0.00000000E+00  0.00000000E+00
  0.00000000E+00  0.00000000E+00  0.00000000E+00
  0.00000000E+00  0.00000000E+00  0.00000000E+00
  0.00000000E+00  0.00000000E+00  0.00000000E+00
  0.00000000E+00  0.00000000E+00  0.00000000E+00
  0.00000000E+00  0.00000000E+00  0.00000000E+00
  0.00000000E+00  0.00000000E+00  0.00000000E+00
  0.00000000E+00  0.00000000E+00  0.00000000E+00
  0.00000000E+00  0.00000000E+00  0.00000000E+00
  0.00000000E+00  0.00000000E+00  0.00000000E+00
  0.00000000E+00  0.00000000E+00  0.00000000E+00
