SCEL6_3_2_1_0_1_0/6                     
   1.00000000000000     
     3.8558335255252003    0.0000000000000000    3.8558335256658647
     0.0000000000000000   -7.7695449568859472    0.0000000000000000
     3.8580058831584707    0.0000000000000000   -7.7138393991788421
   La   Mn   Ni   O 
     6     2     4    18
Direct
  0.3333332999999996  0.5062304276248213  0.6666667000000004
  0.6682659069191033  0.9917785070417082  0.3365317138382764
  0.9984007930808971  0.5082214929582918  0.9968015861617232
  0.3333332999999996  0.9937695723751787  0.6666667000000004
  0.6682659069191033  0.5082214929582918  0.3365317138382764
  0.9984007930808971  0.9917785070417082  0.9968015861617232
  0.1673142367912277  0.2500000000000000  0.3346283735825892
  0.4993524632087727  0.2500000000000000  0.9987049264174104
  0.8333332999999996  0.7500000000000000  0.6666667000000004
  0.1662902336437071  0.7500000000000000  0.3325803672874130
  0.8333332999999996  0.2500000000000000  0.6666667000000004
  0.5003764663562933  0.7500000000000000  0.0007529327125866
  0.0029623874883526  0.2500000000000000  0.4959900441440652
  0.6661085597630603  0.7500000000000000  0.8341182013617399
  0.3333332999999996  0.2500000000000000  0.1666667000000004
  0.0005581402369401  0.7500000000000000  0.4992150986382597
  0.6637043125116477  0.2500000000000000  0.8373432558559344
  0.3333332999999996  0.7500000000000000  0.1666667000000004
  0.1665164997767405  0.4942992690460386  0.3330328995534728
  0.8333332999999996  0.9973908094830648  0.6666667000000004
  0.5001502002232598  0.4942992690460386  0.0003004004465268
  0.1665164997767405  0.0057007309539614  0.3330328995534728
  0.8333332999999996  0.5026091905169352  0.6666667000000004
  0.5001502002232598  0.0057007309539614  0.0003004004465268
  0.8333332999999996  0.2500000000000000  0.1666667000000004
  0.4986569584013338  0.7500000000000000  0.4992150986382597
  0.1736390433441457  0.2500000000000000  0.8373432558558704
  0.8333332999999996  0.7500000000000000  0.1666667000000004
  0.4930276566558547  0.2500000000000000  0.4959900441441292
  0.1680097415986666  0.7500000000000000  0.8341182013617399
 
  0.00000000E+00  0.00000000E+00  0.00000000E+00
  0.00000000E+00  0.00000000E+00  0.00000000E+00
  0.00000000E+00  0.00000000E+00  0.00000000E+00
  0.00000000E+00  0.00000000E+00  0.00000000E+00
  0.00000000E+00  0.00000000E+00  0.00000000E+00
  0.00000000E+00  0.00000000E+00  0.00000000E+00
  0.00000000E+00  0.00000000E+00  0.00000000E+00
  0.00000000E+00  0.00000000E+00  0.00000000E+00
  0.00000000E+00  0.00000000E+00  0.00000000E+00
  0.00000000E+00  0.00000000E+00  0.00000000E+00
  0.00000000E+00  0.00000000E+00  0.00000000E+00
  0.00000000E+00  0.00000000E+00  0.00000000E+00
  0.00000000E+00  0.00000000E+00  0.00000000E+00
  0.00000000E+00  0.00000000E+00  0.00000000E+00
  0.00000000E+00  0.00000000E+00  0.00000000E+00
  0.00000000E+00  0.00000000E+00  0.00000000E+00
  0.00000000E+00  0.00000000E+00  0.00000000E+00
  0.00000000E+00  0.00000000E+00  0.00000000E+00
  0.00000000E+00  0.00000000E+00  0.00000000E+00
  0.00000000E+00  0.00000000E+00  0.00000000E+00
  0.00000000E+00  0.00000000E+00  0.00000000E+00
  0.00000000E+00  0.00000000E+00  0.00000000E+00
  0.00000000E+00  0.00000000E+00  0.00000000E+00
  0.00000000E+00  0.00000000E+00  0.00000000E+00
  0.00000000E+00  0.00000000E+00  0.00000000E+00
  0.00000000E+00  0.00000000E+00  0.00000000E+00
  0.00000000E+00  0.00000000E+00  0.00000000E+00
  0.00000000E+00  0.00000000E+00  0.00000000E+00
  0.00000000E+00  0.00000000E+00  0.00000000E+00
  0.00000000E+00  0.00000000E+00  0.00000000E+00
