SCEL6_3_1_2_0_2_1/4                     
   1.00000000000000     
     3.8814950369090702    3.8814950370116490   -0.0000000000272959
    -3.8811369838083207    7.7626320110714220    0.0031227866852532
    -0.0019630865421377    3.8834581234991417    7.7627855096680021
   La   Mn   Ni   O 
     6     3     3    18
Direct
  0.8343907745143397  0.8237166336553443  0.5075017173158898
  0.6720668839044492  0.6662111215017532  0.9896552106893637
  0.4899478311508219  0.5106893895754894  0.5094149481229522
  0.3344969586776045  0.3418005559255235  0.9892054267193160
  0.1691682523540621  0.1592680551463346  0.5023955401454785
  0.0005572833280851  0.9987429091685698  0.0001425241752528
  0.7509563559991008  0.2489610842724801  0.2491262037292614
  0.5823881552545416  0.0838463269514520  0.7513772625394495
  0.0831677033868203  0.5839644920375875  0.2497000011888630
  0.9181429933404104  0.4143189163611893  0.7493951969580408
  0.2492210683843652  0.7513915930593669  0.7501662701718601
  0.4168575567849686  0.9179356156259644  0.2483493708040925
  0.6663464508222319  0.1665636122980771  0.5007435860574816
  0.8311021478599585  0.3305243539729759  0.0072712503070562
  0.0029672300333985  0.5006179267192223  0.4934476132139949
  0.1643204069949533  0.6652775609119459  0.0060817250981060
  0.3333468089851976  0.8364270140691232  0.4968792679605087
  0.5014537583531791  0.0019517561598050  0.9951407271338653
  0.4193967384662471  0.9212144507168247  0.7508555338257423
  0.5872910863226366  0.0882436494453742  0.2496194544431205
  0.7472095853956944  0.2457643137135790  0.7503950634546115
  0.9175442608286062  0.4159168463141611  0.2493834102451444
  0.0825696856593225  0.5814964295408842  0.7522596824259082
  0.2457694462822744  0.7462598515630816  0.2494899344400494
  0.2566310374360441  0.2457643137136216  0.7503950634545902
  0.4171555826120752  0.4159168463141611  0.2493834102451444
  0.5836741023738696  0.5814964295408913  0.7522596824259082
  0.7584807677144951  0.7462598515631385  0.2494899344400281
  0.9085333769912864  0.9212144507167750  0.7508555338257565
  0.0748457097889670  0.0882436494453245  0.2496194544431347
 
  0.00000000E+00  0.00000000E+00  0.00000000E+00
  0.00000000E+00  0.00000000E+00  0.00000000E+00
  0.00000000E+00  0.00000000E+00  0.00000000E+00
  0.00000000E+00  0.00000000E+00  0.00000000E+00
  0.00000000E+00  0.00000000E+00  0.00000000E+00
  0.00000000E+00  0.00000000E+00  0.00000000E+00
  0.00000000E+00  0.00000000E+00  0.00000000E+00
  0.00000000E+00  0.00000000E+00  0.00000000E+00
  0.00000000E+00  0.00000000E+00  0.00000000E+00
  0.00000000E+00  0.00000000E+00  0.00000000E+00
  0.00000000E+00  0.00000000E+00  0.00000000E+00
  0.00000000E+00  0.00000000E+00  0.00000000E+00
  0.00000000E+00  0.00000000E+00  0.00000000E+00
  0.00000000E+00  0.00000000E+00  0.00000000E+00
  0.00000000E+00  0.00000000E+00  0.00000000E+00
  0.00000000E+00  0.00000000E+00  0.00000000E+00
  0.00000000E+00  0.00000000E+00  0.00000000E+00
  0.00000000E+00  0.00000000E+00  0.00000000E+00
  0.00000000E+00  0.00000000E+00  0.00000000E+00
  0.00000000E+00  0.00000000E+00  0.00000000E+00
  0.00000000E+00  0.00000000E+00  0.00000000E+00
  0.00000000E+00  0.00000000E+00  0.00000000E+00
  0.00000000E+00  0.00000000E+00  0.00000000E+00
  0.00000000E+00  0.00000000E+00  0.00000000E+00
  0.00000000E+00  0.00000000E+00  0.00000000E+00
  0.00000000E+00  0.00000000E+00  0.00000000E+00
  0.00000000E+00  0.00000000E+00  0.00000000E+00
  0.00000000E+00  0.00000000E+00  0.00000000E+00
  0.00000000E+00  0.00000000E+00  0.00000000E+00
  0.00000000E+00  0.00000000E+00  0.00000000E+00
