SCEL6_1_2_3_0_0_0/0
1.0
3.94014471 0.00000000 0.00000000
0.00000000 7.88028941 0.00000000
0.00000000 0.00000000 11.82043412
   La   Mn   Ni   O
   6   5   1   18
Direct
0.00000000    0.50000000    0.33333330    La
0.00000000    0.00000000    0.66666670    La
0.00000000    0.50000000    0.00000000    La
0.00000000    0.00000000    0.33333330    La
0.00000000    0.50000000    0.66666670    La
0.00000000    0.00000000    0.00000000    La
0.50000000    0.25000000    0.50000000    Mn
0.50000000    0.75000000    0.83333330    Mn
0.50000000    0.75000000    0.16666670    Mn
0.50000000    0.25000000    0.83333330    Mn
0.50000000    0.75000000    0.50000000    Mn
0.50000000    0.25000000    0.16666670    Ni
0.50000000    0.75000000    0.66666670    O
0.50000000    0.25000000    0.33333330    O
0.50000000    0.75000000    0.00000000    O
0.50000000    0.25000000    0.66666670    O
0.50000000    0.75000000    0.33333330    O
0.50000000    0.25000000    0.00000000    O
0.50000000    0.50000000    0.83333330    O
0.50000000    0.00000000    0.50000000    O
0.50000000    0.50000000    0.16666670    O
0.50000000    0.00000000    0.83333330    O
0.50000000    0.50000000    0.50000000    O
0.50000000    0.00000000    0.16666670    O
0.00000000    0.75000000    0.83333330    O
0.00000000    0.25000000    0.50000000    O
0.00000000    0.75000000    0.16666670    O
0.00000000    0.25000000    0.83333330    O
0.00000000    0.75000000    0.50000000    O
0.00000000    0.25000000    0.16666670    O
